     Program PWSCF v.7.3.1 starts on  5Aug2024 at 10:54:16

     Reading input from test.in

     Current dimensions of program PWSCF are:
     Max number of different atomic species (ntypx) = 10
     Max number of k-points (npk) =  40000
     Max angular momentum in pseudopotentials (lmaxx) =  4

     IMPORTANT: XC functional enforced from input :
     Exchange-correlation= LDA
                           (   1   1   0   0   0   0   0)
     Any further DFT definition will be discarded
     Please, verify this is what you really want

     Found identity + ( -0.5000  0.0000  0.0000) symmetry
     This is a supercell, fractional translations are disabled

     R & G space division:  proc/nbgrp/npool/nimage =       2
     Subspace diagonalization in iterative solution of the eigenvalue problem:
     a serial algorithm will be used

     Using Slab Decomposition

     bravais-lattice index     =            4
     lattice parameter (alat)  =       8.0000  a.u.
     unit-cell volume          =     775.9595 (a.u.)^3
     number of atoms/cell      =           24
     number of atomic types    =            1
     number of electrons       =        96.00
     number of Kohn-Sham states=           58
     kinetic-energy cutoff     =      40.0000  Ry
     charge density cutoff     =     160.0000  Ry
     scf convergence threshold =      1.0E-06
     mixing beta               =       0.7000
     number of iterations used =            8  plain     mixing
     energy convergence thresh.=      1.0E-04
     force convergence thresh. =      1.0E-03
     press convergence thresh. =      5.0E-01
     Exchange-correlation= LDA
                           (   1   1   0   0   0   0   0)
     nstep                     =           50

     celldm(1)=   8.000004  celldm(2)=   0.000000  celldm(3)=   1.749999
     celldm(4)=   0.000000  celldm(5)=   0.000000  celldm(6)=   0.000000

     crystal axes: (cart. coord. in units of alat)
               a(1) = (   1.000000   0.000000   0.000000 )
               a(2) = (  -0.500000   0.866025   0.000000 )
               a(3) = (   0.000000   0.000000   1.749999 )

     reciprocal axes: (cart. coord. in units 2 pi/alat)
               b(1) = (  1.000000  0.577350 -0.000000 )
               b(2) = (  0.000000  1.154701  0.000000 )
               b(3) = (  0.000000 -0.000000  0.571429 )

     PseudoPot. # 1 for C  read from file:
     /home/edoardocabiati/.burai/.pseudopot/C.pz-n-rrkjus_psl.0.1.UPF
     MD5 check sum: a3cecbabebb5b3a1aff122f23eb09bb0
     Pseudo is Ultrasoft + core correction, Zval =  4.0
     Generated using "atomic" code by A. Dal Corso  v.5.0.2 svn rev. 9415
     Using radial grid of 1073 points,  4 beta functions with:
                l(1) =   0
                l(2) =   0
                l(3) =   1
                l(4) =   1
     Q(r) pseudized with 0 coefficients

     atomic species   valence    mass     pseudopotential
     C                 4.00    12.01100     C ( 1.00)

     12 Sym. Ops. (no inversion) found

   Cartesian axes

     site n.     atom                  positions (alat units)
         1        C      tau(   1) = (   0.0000000   0.0000000   0.2916653  )
         2        C      tau(   2) = (   0.0000000   0.0000000   0.8749994  )
         3        C      tau(   3) = (   0.0000000   0.0000000   1.4583318  )
         4        C      tau(   4) = (  -0.0000005   0.2886748   0.2916653  )
         5        C      tau(   5) = (   0.2500000   0.1443370   0.8749994  )
         6        C      tau(   6) = (  -0.0000005   0.2886748   1.4583318  )
         7        C      tau(   7) = (   0.5000000   0.0000000   0.2916653  )
         8        C      tau(   8) = (   0.5000000   0.0000000   0.8749994  )
         9        C      tau(   9) = (   0.5000000   0.0000000   1.4583318  )
        10        C      tau(  10) = (   0.4999995   0.2886748   0.2916653  )
        11        C      tau(  11) = (   0.7500000   0.1443370   0.8749994  )
        12        C      tau(  12) = (   0.4999995   0.2886748   1.4583318  )
        13        C      tau(  13) = (  -0.2500000   0.4330127   0.2916653  )
        14        C      tau(  14) = (  -0.2500000   0.4330127   0.8749994  )
        15        C      tau(  15) = (  -0.2500000   0.4330127   1.4583318  )
        16        C      tau(  16) = (  -0.2500005   0.7216875   0.2916653  )
        17        C      tau(  17) = (   0.0000000   0.5773497   0.8749994  )
        18        C      tau(  18) = (  -0.2500005   0.7216875   1.4583318  )
        19        C      tau(  19) = (   0.2500000   0.4330127   0.2916653  )
        20        C      tau(  20) = (   0.2500000   0.4330127   0.8749994  )
        21        C      tau(  21) = (   0.2500000   0.4330127   1.4583318  )
        22        C      tau(  22) = (   0.2499995   0.7216875   0.2916653  )
        23        C      tau(  23) = (   0.5000000   0.5773497   0.8749994  )
        24        C      tau(  24) = (   0.2499995   0.7216875   1.4583318  )

     number of k points=    24  Gaussian smearing, width (Ry)=  0.0100
                       cart. coord. in units 2pi/alat
        k(    1) = (   0.0833333   0.1443376   0.0952382), wk =   0.0740741
        k(    2) = (   0.0833333   0.1443376  -0.2857145), wk =   0.0370370
        k(    3) = (   0.0833333   0.3367877   0.0952382), wk =   0.1481481
        k(    4) = (   0.0833333   0.3367877  -0.2857145), wk =   0.0740741
        k(    5) = (   0.0833333   0.5292377   0.0952382), wk =   0.1481481
        k(    6) = (   0.0833333   0.5292377  -0.2857145), wk =   0.0740741
        k(    7) = (   0.0833333  -0.4330127   0.0952382), wk =   0.1481481
        k(    8) = (   0.0833333  -0.4330127  -0.2857145), wk =   0.0740741
        k(    9) = (   0.0833333  -0.2405626   0.0952382), wk =   0.1481481
        k(   10) = (   0.0833333  -0.2405626  -0.2857145), wk =   0.0740741
        k(   11) = (   0.0833333  -0.0481125   0.0952382), wk =   0.0740741
        k(   12) = (   0.0833333  -0.0481125  -0.2857145), wk =   0.0370370
        k(   13) = (   0.2500000   0.4330127   0.0952382), wk =   0.0740741
        k(   14) = (   0.2500000   0.4330127  -0.2857145), wk =   0.0370370
        k(   15) = (   0.2500000   0.6254628   0.0952382), wk =   0.1481481
        k(   16) = (   0.2500000   0.6254628  -0.2857145), wk =   0.0740741
        k(   17) = (   0.2500000  -0.3367877   0.0952382), wk =   0.1481481
        k(   18) = (   0.2500000  -0.3367877  -0.2857145), wk =   0.0740741
        k(   19) = (   0.2500000  -0.1443376   0.0952382), wk =   0.0740741
        k(   20) = (   0.2500000  -0.1443376  -0.2857145), wk =   0.0370370
        k(   21) = (   0.4166667   0.7216878   0.0952382), wk =   0.0740741
        k(   22) = (   0.4166667   0.7216878  -0.2857145), wk =   0.0370370
        k(   23) = (   0.4166667  -0.2405626   0.0952382), wk =   0.0740741
        k(   24) = (   0.4166667  -0.2405626  -0.2857145), wk =   0.0370370

     Check: negative core charge=   -0.000046

     Initial potential from superposition of free atoms

     starting charge      95.9992, renormalised to      96.0000
     Starting wfcs are   96 randomized atomic wfcs

     Self-consistent Calculation

     iteration #  1     ecut=    40.00 Ry     beta= 0.70
     Davidson diagonalization with overlap
     ethr =  1.00E-02,  avg # of iterations =  5.5

     total energy              =    -282.99527914 Ry
     estimated scf accuracy    <       5.19935177 Ry

[...]

     iteration #  5     ecut=    40.00 Ry     beta= 0.70
     Davidson diagonalization with overlap
     c_bands:  1 eigenvalues not converged
     c_bands:  2 eigenvalues not converged
     c_bands:  1 eigenvalues not converged
     ethr =  4.05E-06,  avg # of iterations = 11.0

[...]

     End of self-consistent calculation

          k = 0.0833 0.1443 0.0952 (  3299 PWs)   bands (ev):

    -8.5860  -7.6165  -6.9310  -2.9040  -2.9040  -2.1675  -2.1674  -1.6989
    -1.6989  -1.3792  -1.0538  -0.7297  -0.2093   0.2725   0.6075   0.8394
     0.8394   1.4800   1.4800   1.8730   1.8730   2.2191   4.0401   7.0264
     7.3058   7.4653   7.6381   7.6381   7.8810   7.8811   8.0199   8.0199
     8.0472   9.3424   9.3424  10.5957  10.7834  10.7834  11.7539  12.2662
    12.4010  12.4549  12.5152  12.6059  12.6598  13.4337  13.4703  13.4703
    15.7726  16.6620  16.6620  17.8752  18.2008  18.2008  19.5888  20.8293
    20.8293  22.6090

[...]

     the Fermi energy is    15.4543 ev

!    total energy              =    -283.65155801 Ry
     estimated scf accuracy    <       0.00000031 Ry
     smearing contrib. (-TS)   =      -0.00078006 Ry
     internal energy E=F+TS    =    -283.65077795 Ry

     The total energy is F=E-TS. E is the sum of the following terms:
     one-electron contribution =      57.60813969 Ry
     hartree contribution      =      49.69903067 Ry
     xc contribution           =    -109.27752988 Ry
     ewald contribution        =    -281.68041842 Ry

     convergence has been achieved in  11 iterations

     Forces acting on atoms (cartesian axes, Ry/au):

     atom    1 type  1   force =    -0.00000000   -0.00000000    0.01992092
     atom    2 type  1   force =     0.00000000    0.00000000    0.00000000
     atom    3 type  1   force =     0.00000000   -0.00000000   -0.01992092
     atom    4 type  1   force =    -0.00000000   -0.00000173    0.01109385
     atom    5 type  1   force =    -0.00000165   -0.00000095    0.00000000
     atom    6 type  1   force =     0.00000000   -0.00000173   -0.01109385
     atom    7 type  1   force =    -0.00000000    0.00000117    0.01991992
     atom    8 type  1   force =     0.00000000    0.00000414   -0.00000000
     atom    9 type  1   force =     0.00000000    0.00000117   -0.01991992
     atom   10 type  1   force =     0.00000000    0.00000000    0.01109211
     atom   11 type  1   force =     0.00000165   -0.00000095    0.00000000
     atom   12 type  1   force =     0.00000000    0.00000000   -0.01109211
     atom   13 type  1   force =    -0.00000101   -0.00000058    0.01991992
     atom   14 type  1   force =    -0.00000359   -0.00000207    0.00000000
     atom   15 type  1   force =    -0.00000101   -0.00000058   -0.01991992
     atom   16 type  1   force =    -0.00000150    0.00000086    0.01109385
     atom   17 type  1   force =    -0.00000000    0.00000000    0.00000000
     atom   18 type  1   force =    -0.00000150    0.00000086   -0.01109385
     atom   19 type  1   force =     0.00000101   -0.00000058    0.01991992
     atom   20 type  1   force =     0.00000359   -0.00000207    0.00000000
     atom   21 type  1   force =     0.00000101   -0.00000058   -0.01991992
     atom   22 type  1   force =     0.00000150    0.00000086    0.01109385
     atom   23 type  1   force =     0.00000000    0.00000190   -0.00000000
     atom   24 type  1   force =     0.00000150    0.00000086   -0.01109385

     Total force =     0.064490     Total SCF correction =     0.001762

     Computing stress (Cartesian axis) and pressure

          total   stress  (Ry/bohr**3)                   (kbar)     P=     3248.12
   0.03075882   0.00000000   0.00000000         4524.78        0.00        0.00
[...]

     Writing config-only to output data dir ../results/test/graphite.save/ :
     XML data file
     NEW-OLD atomic charge density approx. for the potential

[...]

     Energy error            =      2.7E+00 Ry
     Gradient error          =      2.2E-02 Ry/Bohr
     Cell gradient error     =      1.2E+03 kbar

[...]

     enthalpy           old  =    -283.6515580097 Ry
     enthalpy           new  =    -286.3552470931 Ry

     CASE: enthalpy          _new < enthalpy          _old

[...]

     Threshold (ethr) on eigenvalues was too large:
     Diagonalizing with lowered threshold

     Davidson diagonalization with overlap
     ethr =  2.81E-08,  avg # of iterations =  3.8

[...]

     Total force =     0.000750     Total SCF correction =     0.000205
     SCF correction compared to forces is large: reduce conv_thr to get better values

[...]

     number of scf cycles    =  11
     number of bfgs steps    =  10

     enthalpy           old  =    -287.0168886723 Ry
     enthalpy           new  =    -287.0169001672 Ry

     CASE: enthalpy          _new < enthalpy          _old

     new trust radius        =       0.0014094017 bohr
     new conv_thr            =       0.0000000100 Ry

     new unit-cell volume =   1202.88442 a.u.^3 (   178.24908 Ang^3 )
     density =      2.68542 g/cm^3

[...]

ATOMIC_POSITIONS (crystal)
C               -0.0000000000       -0.0000000000        0.1735356140
C               -0.0000000000       -0.0000000000        0.5000000000
C                0.0000000000        0.0000000000        0.8264633860
C                0.1666679692        0.3333369383        0.1731451280
C                0.3333411482        0.1666700741        0.5000000000
C                0.1666679692        0.3333369383        0.8268538720
C                0.4999985085       -0.0000029831        0.1735357080
C                0.4999972206       -0.0000055589        0.5000000000
C                0.4999985085       -0.0000029831        0.8264632920
C                0.6666660000        0.3333330000        0.1731450392
C                0.8333289259        0.1666700741        0.5000000000
C                0.6666660000        0.3333330000        0.8268539608
C                0.0000029831        0.5000014915        0.1735357080
C                0.0000055589        0.5000027794        0.5000000000
C                0.0000029831        0.5000014915        0.8264632920
C                0.1666679692        0.8333310308        0.1731451280
C                0.3333330000        0.6666660000        0.5000000000
C                0.1666679692        0.8333310308        0.8268538720
C                0.4999985085        0.5000014915        0.1735357080
C                0.4999972206        0.5000027794        0.5000000000
C                0.4999985085        0.5000014915        0.8264632920
C                0.6666620617        0.8333310308        0.1731451280
C                0.8333289259        0.6666578518        0.5000000000
C                0.6666620617        0.8333310308        0.8268538720

     Writing config-only to output data dir ../results/test/graphite.save/ :
     XML data file
     NEW-OLD atomic charge density approx. for the potential

[...]

     Threshold (ethr) on eigenvalues was too large:
     Diagonalizing with lowered threshold

     Davidson diagonalization with overlap
     ethr =  5.30E-09,  avg # of iterations =  4.1

[...]

     Total force =     0.000290     Total SCF correction =     0.000068
     SCF correction compared to forces is large: reduce conv_thr to get better values

[...]

     Energy error            =      1.6E-05 Ry
     Gradient error          =      1.1E-04 Ry/Bohr
     Cell gradient error     =      2.5E-01 kbar

     bfgs converged in  12 scf cycles and  11 bfgs steps
     (criteria: energy <  1.0E-04 Ry, force <  1.0E-03 Ry/Bohr, cell <  5.0E-01 kbar)

     End of BFGS Geometry Optimization

     Final enthalpy           =    -287.0168844452 Ry

     File ../results/test/graphite.bfgs deleted, as requested
Begin final coordinates
     new unit-cell volume =   1202.88442 a.u.^3 (   178.24908 Ang^3 )
     density =      2.68542 g/cm^3

CELL_PARAMETERS (alat=  8.00000437)
   1.147499153   0.000000000   0.000000000
  -0.573749576   0.993763417   0.000000000
   0.000000000  -0.000000000   2.060240150

ATOMIC_POSITIONS (crystal)
C               -0.0000000000       -0.0000000000        0.1735356140
C               -0.0000000000       -0.0000000000        0.5000000000
C                0.0000000000        0.0000000000        0.8264633860
C                0.1666679692        0.3333369383        0.1731451280
C                0.3333411482        0.1666700741        0.5000000000
C                0.1666679692        0.3333369383        0.8268538720
C                0.4999985085       -0.0000029831        0.1735357080
C                0.4999972206       -0.0000055589        0.5000000000
C                0.4999985085       -0.0000029831        0.8264632920
C                0.6666660000        0.3333330000        0.1731450392
C                0.8333289259        0.1666700741        0.5000000000
C                0.6666660000        0.3333330000        0.8268539608
C                0.0000029831        0.5000014915        0.1735357080
C                0.0000055589        0.5000027794        0.5000000000
C                0.0000029831        0.5000014915        0.8264632920
C                0.1666679692        0.8333310308        0.1731451280
C                0.3333330000        0.6666660000        0.5000000000
C                0.1666679692        0.8333310308        0.8268538720
C                0.4999985085        0.5000014915        0.1735357080
C                0.4999972206        0.5000027794        0.5000000000
C                0.4999985085        0.5000014915        0.8264632920
C                0.6666620617        0.8333310308        0.1731451280
C                0.8333289259        0.6666578518        0.5000000000
C                0.6666620617        0.8333310308        0.8268538720
End final coordinates

     Writing config-only to output data dir ../results/test/graphite.save/ :
     XML data file

     Final scf calculation at the relaxed structure.
     The G-vectors are recalculated for the final unit cell
     Results may differ from those at the preceding step.

     Using Slab Decomposition

     bravais-lattice index     =            4
     lattice parameter (alat)  =       8.0000  a.u.
     unit-cell volume          =    1202.8844 (a.u.)^3
     number of atoms/cell      =           24
     number of atomic types    =            1
     number of electrons       =        96.00
     number of Kohn-Sham states=           58
     kinetic-energy cutoff     =      40.0000  Ry
     charge density cutoff     =     160.0000  Ry
     scf convergence threshold =      1.0E-08
     mixing beta               =       0.7000
     number of iterations used =            8  plain     mixing
     press convergence thresh. =      5.0E-01
     Exchange-correlation= LDA
                           (   1   1   0   0   0   0   0)

     celldm(1)=   8.000004  celldm(2)=   0.000000  celldm(3)=   1.749999
     celldm(4)=   0.000000  celldm(5)=   0.000000  celldm(6)=   0.000000

     crystal axes: (cart. coord. in units of alat)
               a(1) = (   1.147499   0.000000   0.000000 )
               a(2) = (  -0.573750   0.993763   0.000000 )
               a(3) = (   0.000000  -0.000000   2.060240 )

     reciprocal axes: (cart. coord. in units 2 pi/alat)
               b(1) = (  0.871460  0.503138 -0.000000 )
               b(2) = ( -0.000000  1.006276  0.000000 )
               b(3) = ( -0.000000 -0.000000  0.485380 )

     PseudoPot. # 1 for C  read from file:
     /home/edoardocabiati/.burai/.pseudopot/C.pz-n-rrkjus_psl.0.1.UPF
     MD5 check sum: a3cecbabebb5b3a1aff122f23eb09bb0
     Pseudo is Ultrasoft + core correction, Zval =  4.0
     Generated using "atomic" code by A. Dal Corso  v.5.0.2 svn rev. 9415
     Using radial grid of 1073 points,  4 beta functions with:
                l(1) =   0
                l(2) =   0
                l(3) =   1
                l(4) =   1
     Q(r) pseudized with 0 coefficients

     atomic species   valence    mass     pseudopotential
     C                 4.00    12.01100     C ( 1.00)

     12 Sym. Ops. (no inversion) found

   Cartesian axes

     site n.     atom                  positions (alat units)
         1        C      tau(   1) = (  -0.0000000  -0.0000000   0.3575250  )
         2        C      tau(   2) = (  -0.0000000  -0.0000000   1.0301201  )
         3        C      tau(   3) = (   0.0000000   0.0000000   1.7027131  )
         4        C      tau(   4) = (  -0.0000006   0.3312581   0.3567205  )
         5        C      tau(   5) = (   0.2868818   0.1656306   1.0301201  )
         6        C      tau(   6) = (  -0.0000006   0.3312581   1.7035175  )
         7        C      tau(   7) = (   0.5737496  -0.0000030   0.3575252  )
         8        C      tau(   8) = (   0.5737496  -0.0000055   1.0301201  )
         9        C      tau(   9) = (   0.5737496  -0.0000030   1.7027129  )
        10        C      tau(  10) = (   0.5737490   0.3312541   0.3567204  )
        11        C      tau(  11) = (   0.8606174   0.1656306   1.0301201  )
        12        C      tau(  12) = (   0.5737490   0.3312541   1.7035177  )
        13        C      tau(  13) = (  -0.2868722   0.4968832   0.3575252  )
        14        C      tau(  14) = (  -0.2868700   0.4968845   1.0301201  )
        15        C      tau(  15) = (  -0.2868722   0.4968832   1.7027129  )
        16        C      tau(  16) = (  -0.2868720   0.8281339   0.3567205  )
        17        C      tau(  17) = (   0.0000000   0.6625083   1.0301201  )
        18        C      tau(  18) = (  -0.2868720   0.8281339   1.7035175  )
        19        C      tau(  19) = (   0.2868722   0.4968832   0.3575252  )
        20        C      tau(  20) = (   0.2868700   0.4968845   1.0301201  )
        21        C      tau(  21) = (   0.2868722   0.4968832   1.7027129  )
        22        C      tau(  22) = (   0.2868708   0.8281339   0.3567205  )
        23        C      tau(  23) = (   0.5737496   0.6625002   1.0301201  )
        24        C      tau(  24) = (   0.2868708   0.8281339   1.7035175  )

     number of k points=    24  Gaussian smearing, width (Ry)=  0.0100
                       cart. coord. in units 2pi/alat
        k(    1) = (   0.0726217   0.1257845   0.0808967), wk =   0.0740741
        k(    2) = (   0.0726217   0.1257845  -0.2426902), wk =   0.0370370
        k(    3) = (   0.0726217   0.2934971   0.0808967), wk =   0.1481481
        k(    4) = (   0.0726217   0.2934971  -0.2426902), wk =   0.0740741
        k(    5) = (   0.0726217   0.4612097   0.0808967), wk =   0.1481481
        k(    6) = (   0.0726217   0.4612097  -0.2426902), wk =   0.0740741
        k(    7) = (   0.0726217  -0.3773534   0.0808967), wk =   0.1481481
        k(    8) = (   0.0726217  -0.3773534  -0.2426902), wk =   0.0740741
        k(    9) = (   0.0726217  -0.2096408   0.0808967), wk =   0.1481481
        k(   10) = (   0.0726217  -0.2096408  -0.2426902), wk =   0.0740741
        k(   11) = (   0.0726217  -0.0419282   0.0808967), wk =   0.0740741
        k(   12) = (   0.0726217  -0.0419282  -0.2426902), wk =   0.0370370
        k(   13) = (   0.2178651   0.3773534   0.0808967), wk =   0.0740741
        k(   14) = (   0.2178651   0.3773534  -0.2426902), wk =   0.0370370
        k(   15) = (   0.2178651   0.5450660   0.0808967), wk =   0.1481481
        k(   16) = (   0.2178651   0.5450660  -0.2426902), wk =   0.0740741
        k(   17) = (   0.2178651  -0.2934971   0.0808967), wk =   0.1481481
        k(   18) = (   0.2178651  -0.2934971  -0.2426902), wk =   0.0740741
        k(   19) = (   0.2178651  -0.1257845   0.0808967), wk =   0.0740741
        k(   20) = (   0.2178651  -0.1257845  -0.2426902), wk =   0.0370370
        k(   21) = (   0.3631085   0.6289223   0.0808967), wk =   0.0740741
        k(   22) = (   0.3631085   0.6289223  -0.2426902), wk =   0.0370370
        k(   23) = (   0.3631085  -0.2096408   0.0808967), wk =   0.0740741
        k(   24) = (   0.3631085  -0.2096408  -0.2426902), wk =   0.0370370

     Check: negative core charge=   -0.000047

     Initial potential from superposition of free atoms

     starting charge      95.9992, renormalised to      96.0000
     Starting wfcs are   96 randomized atomic wfcs

     Self-consistent Calculation

[...]

     iteration #  3     ecut=    40.00 Ry     beta= 0.70
     Davidson diagonalization with overlap
     c_bands:  1 eigenvalues not converged
     ethr =  4.33E-05,  avg # of iterations = 12.5

[...]

     total energy              =    -287.13265435 Ry
     estimated scf accuracy    <       0.00000001 Ry

     iteration # 12     ecut=    40.00 Ry     beta= 0.70
     Davidson diagonalization with overlap
     ethr =  1.52E-11,  avg # of iterations =  4.9

     End of self-consistent calculation

[...]

          k = 0.3631-0.2096-0.2427 (  5148 PWs)   bands (ev):

   -10.0447  -9.9433  -9.3477  -9.0402  -8.9438  -8.3818  -6.6058  -6.6058
    -6.5244  -6.5244  -6.0437  -6.0436  -2.0774  -2.0773  -2.0411  -2.0410
    -1.7390  -1.7390  -0.0387  -0.0386  -0.0130  -0.0129   0.2150   0.2157
     0.2157   0.2634   0.4559   0.5317   1.6795   2.4613   2.4965   2.6921
     2.9666   3.2483   3.3035   3.3326   3.4564   4.0891   4.1704   4.1951
     4.3075   4.3415   4.5649   4.5650   6.6778   6.6780   6.7723   6.7724
    10.7409  10.7410  11.9117  11.9117  12.1736  12.1738  14.1316  15.4908
    15.5030  16.5306

     the Fermi energy is     8.8216 ev

!    total energy              =    -287.13265435 Ry
     estimated scf accuracy    <          5.4E-09 Ry
     smearing contrib. (-TS)   =      -0.00070026 Ry
     internal energy E=F+TS    =    -287.13195409 Ry

     The total energy is F=E-TS. E is the sum of the following terms:
     one-electron contribution =      -7.23284393 Ry
     hartree contribution      =      58.96588425 Ry
     xc contribution           =    -100.28066273 Ry
     ewald contribution        =    -238.58433167 Ry

     convergence has been achieved in  12 iterations

     Forces acting on atoms (cartesian axes, Ry/au):

     atom    1 type  1   force =    -0.00000000   -0.00000000    0.00040219
     atom    2 type  1   force =    -0.00000000    0.00000000    0.00000000
     atom    3 type  1   force =     0.00000000    0.00000000   -0.00040219
     atom    4 type  1   force =     0.00000000   -0.00005571    0.00069475
     atom    5 type  1   force =    -0.00009526   -0.00005500    0.00000000
     atom    6 type  1   force =     0.00000000   -0.00005571   -0.00069475
     atom    7 type  1   force =    -0.00000000    0.00004322    0.00040016
     atom    8 type  1   force =    -0.00000000    0.00007486    0.00000000
     atom    9 type  1   force =    -0.00000000    0.00004322   -0.00040016
     atom   10 type  1   force =    -0.00000000   -0.00000000    0.00069591
     atom   11 type  1   force =     0.00009526   -0.00005500   -0.00000000
     atom   12 type  1   force =     0.00000000    0.00000000   -0.00069591
     atom   13 type  1   force =    -0.00003743   -0.00002161    0.00040016
     atom   14 type  1   force =    -0.00006483   -0.00003743    0.00000000
     atom   15 type  1   force =    -0.00003743   -0.00002161   -0.00040016
     atom   16 type  1   force =    -0.00004825    0.00002786    0.00069475
     atom   17 type  1   force =     0.00000000   -0.00000000   -0.00000000
     atom   18 type  1   force =    -0.00004825    0.00002786   -0.00069475
     atom   19 type  1   force =     0.00003743   -0.00002161    0.00040016
     atom   20 type  1   force =     0.00006483   -0.00003743    0.00000000
     atom   21 type  1   force =     0.00003743   -0.00002161   -0.00040016
     atom   22 type  1   force =     0.00004825    0.00002786    0.00069475
     atom   23 type  1   force =    -0.00000000    0.00010999    0.00000000
     atom   24 type  1   force =     0.00004825    0.00002786   -0.00069475

     Total force =     0.002287     Total SCF correction =     0.000099

     Computing stress (Cartesian axis) and pressure

          total   stress  (Ry/bohr**3)                   (kbar)     P=      102.51
   0.00063515  -0.00000000  -0.00000000           93.43       -0.00       -0.00
   0.00000000   0.00063515   0.00000000            0.00       93.43        0.00
  -0.00000000   0.00000000   0.00082017           -0.00        0.00      120.65

     Writing all to output data dir ../results/test/graphite.save/ :
     XML data file, charge density, pseudopotentials, collected wavefunctions

     General routines

     Parallel routines

   This run was terminated on:  11:55:38   5Aug2024

   JOB DONE.