     Program PWSCF v.7.2 starts on  8Sep2024 at  0:10:30

     Reading input from hydrogen_absorption1_strain.in
Warning: card &CELL ignored
Warning: card     !CELL_FACTOR=4 ignored
Warning: card     !CELL_DOFREE='IBRAV' ignored
Warning: card / ignored
Warning: card     H  1.00784  H.PZ-RRKJUS_PSL.0.1.UPF ignored

     Current dimensions of program PWSCF are:
     Max number of different atomic species (ntypx) = 10
     Max number of k-points (npk) =  40000
     Max angular momentum in pseudopotentials (lmaxx) =  4

     IMPORTANT: XC functional enforced from input :
     Exchange-correlation= LDA
                           (   1   1   0   0   0   0   0)
     Any further DFT definition will be discarded
     Please, verify this is what you really want

     R & G space division:  proc/nbgrp/npool/nimage =       8
     Subspace diagonalization in iterative solution of the eigenvalue problem:
     a serial algorithm will be used

     Using Slab Decomposition

     Title:
     1H2_absorption_C_strain

     bravais-lattice index     =            0
     lattice parameter (alat)  =       8.0000  a.u.
     unit-cell volume          =    1367.9607 (a.u.)^3
     number of atoms/cell      =           24
     number of atomic types    =            1
     number of electrons       =        96.00
     number of Kohn-Sham states=           58
     kinetic-energy cutoff     =      40.0000  Ry
     charge density cutoff     =     400.0000  Ry
     scf convergence threshold =      1.0E-06
     mixing beta               =       0.0500
     number of iterations used =            8  local-TF  mixing
     Exchange-correlation= LDA
                           (   1   1   0   0   0   0   0)

     celldm(1)=   8.000004  celldm(2)=   0.000000  celldm(3)=   0.000000
     celldm(4)=   0.000000  celldm(5)=   0.000000  celldm(6)=   0.000000

     crystal axes: (cart. coord. in units of alat)
               a(1) = (   1.147665   0.000203  -0.001136 )
               a(2) = (  -0.573657   0.993643   0.000961 )
               a(3) = (  -0.003587   0.001193   2.342685 )

     reciprocal axes: (cart. coord. in units 2 pi/alat)
               b(1) = (  0.871246  0.502993  0.001078 )
               b(2) = ( -0.000178  1.006296 -0.000513 )
               b(3) = (  0.000423 -0.000169  0.426861 )

     PseudoPot. # 1 for C  read from file:
     ../../potentials/C.pz-n-rrkjus_psl.0.1.UPF
     MD5 check sum: a3cecbabebb5b3a1aff122f23eb09bb0
     Pseudo is Ultrasoft + core correction, Zval =  4.0
     Generated using "atomic" code by A. Dal Corso  v.5.0.2 svn rev. 9415
     Using radial grid of 1073 points,  4 beta functions with:
                l(1) =   0
                l(2) =   0
                l(3) =   1
                l(4) =   1
     Q(r) pseudized with 0 coefficients

     atomic species   valence    mass     pseudopotential
        C              4.00    12.01100     C ( 1.00)

     No symmetry found

   Cartesian axes

     site n.     atom                  positions (alat units)
         1           C   tau(   1) = (  -0.0009762   0.0002706   0.3997150  )
         2           C   tau(   2) = (   0.0028624  -0.0005938   1.0769265  )
         3           C   tau(   3) = (  -0.0046158   0.0010774   2.0201586  )
         4           C   tau(   4) = (  -0.0008035   0.3315263   0.3987580  )
         5           C   tau(   5) = (   0.2893763   0.1648126   1.0816881  )
         6           C   tau(   6) = (  -0.0044153   0.3321980   2.0124734  )
         7           C   tau(   7) = (   0.5729588   0.0003708   0.3991284  )
         8           C   tau(   8) = (   0.5760954  -0.0008668   1.0782649  )
         9           C   tau(   9) = (   0.5693353   0.0010207   2.0182948  )
        10           C   tau(  10) = (   0.5729834   0.3316231   0.3982415  )
        11           C   tau(  11) = (   0.8634311   0.1650456   1.0784116  )
        12           C   tau(  12) = (   0.5691175   0.3323676   2.0113707  )
        13           C   tau(  13) = (  -0.2877366   0.4971280   0.3994508  )
        14           C   tau(  14) = (  -0.2843735   0.4959971   1.0815709  )
        15           C   tau(  15) = (  -0.2914836   0.4978923   2.0081531  )
        16           C   tau(  16) = (  -0.2876517   0.8283819   0.3992339  )
        17           C   tau(  17) = (   0.0021523   0.6613766   1.0785038  )
        18           C   tau(  18) = (  -0.2914517   0.8292976   2.0126418  )
        19           C   tau(  19) = (   0.2860778   0.4972873   0.3996265  )
        20           C   tau(  20) = (   0.2892333   0.4959593   1.0781300  )
        21           C   tau(  21) = (   0.2823098   0.4980781   2.0195537  )
        22           C   tau(  22) = (   0.2861873   0.8284576   0.3996010  )
        23           C   tau(  23) = (   0.5766165   0.6618375   1.0783655  )
        24           C   tau(  24) = (   0.2824414   0.8292679   2.0304037  )

     number of k points=    36  Gaussian smearing, width (Ry)=  0.0100
                       cart. coord. in units 2pi/alat
        k(    1) = (   0.0726947   0.1257318   0.1067625), wk =   0.0555556
        k(    2) = (   0.0724834   0.1258163  -0.1066682), wk =   0.0555556
        k(    3) = (   0.0726649   0.2934477   0.1066770), wk =   0.0555556
        k(    4) = (   0.0724537   0.2935322  -0.1067537), wk =   0.0555556
        k(    5) = (   0.0726352   0.4611637   0.1065916), wk =   0.0555556
        k(    6) = (   0.0724239   0.4612481  -0.1068391), wk =   0.0555556
        k(    7) = (   0.0727838  -0.3774160   0.1070188), wk =   0.0555556
        k(    8) = (   0.0725725  -0.3773315  -0.1064119), wk =   0.0555556
        k(    9) = (   0.0727541  -0.2097000   0.1069333), wk =   0.0555556
        k(   10) = (   0.0725428  -0.2096156  -0.1064973), wk =   0.0555556
        k(   11) = (   0.0727244  -0.0419841   0.1068479), wk =   0.0555556
        k(   12) = (   0.0725131  -0.0418997  -0.1065828), wk =   0.0555556
        k(   13) = (   0.2179024   0.2095640   0.1069421), wk =   0.0555556
        k(   14) = (   0.2176911   0.2096484  -0.1064885), wk =   0.0555556
        k(   15) = (   0.2178727   0.3772799   0.1068567), wk =   0.0555556
        k(   16) = (   0.2176614   0.3773644  -0.1065740), wk =   0.0555556
        k(   17) = (   0.2178430   0.5449958   0.1067713), wk =   0.0555556
        k(   18) = (   0.2176317   0.5450803  -0.1066594), wk =   0.0555556
        k(   19) = (   0.2179915  -0.2935838   0.1071984), wk =   0.0555556
        k(   20) = (   0.2177802  -0.2934993  -0.1062322), wk =   0.0555556
        k(   21) = (   0.2179618  -0.1258679   0.1071130), wk =   0.0555556
        k(   22) = (   0.2177505  -0.1257834  -0.1063177), wk =   0.0555556
        k(   23) = (   0.2179321   0.0418481   0.1070276), wk =   0.0555556
        k(   24) = (   0.2177208   0.0419325  -0.1064031), wk =   0.0555556
        k(   25) = (   0.3631101   0.2933961   0.1071218), wk =   0.0555556
        k(   26) = (   0.3628988   0.2934806  -0.1063089), wk =   0.0555556
        k(   27) = (   0.3630804   0.4611121   0.1070364), wk =   0.0555556
        k(   28) = (   0.3628691   0.4611965  -0.1063943), wk =   0.0555556
        k(   29) = (   0.3630507   0.6288280   0.1069509), wk =   0.0555556
        k(   30) = (   0.3628394   0.6289125  -0.1064797), wk =   0.0555556
        k(   31) = (   0.3631992  -0.2097516   0.1073781), wk =   0.0555556
        k(   32) = (   0.3629879  -0.2096672  -0.1060526), wk =   0.0555556
        k(   33) = (   0.3631695  -0.0420357   0.1072927), wk =   0.0555556
        k(   34) = (   0.3629582  -0.0419513  -0.1061380), wk =   0.0555556
        k(   35) = (   0.3631398   0.1256802   0.1072073), wk =   0.0555556
        k(   36) = (   0.3629285   0.1257647  -0.1062234), wk =   0.0555556

     Check: negative core charge=   -0.000002

     Initial potential from superposition of free atoms

     starting charge      95.9992, renormalised to      96.0000
     Starting wfcs are   96 randomized atomic wfcs

     Self-consistent Calculation

     iteration #  1     ecut=    40.00 Ry     beta= 0.05
     Davidson diagonalization with overlap
     ethr =  1.00E-02,  avg # of iterations =  3.6

     total energy              =    -287.97370369 Ry
     estimated scf accuracy    <       1.74933294 Ry

[...]

     iteration #  7     ecut=    40.00 Ry     beta= 0.05
     Davidson diagonalization with overlap
     c_bands:  1 eigenvalues not converged
     c_bands:  2 eigenvalues not converged
     c_bands:  1 eigenvalues not converged
     ethr =  3.59E-05,  avg # of iterations = 13.2

[...]

     total energy              =    -287.15029329 Ry
     estimated scf accuracy    <       0.00000259 Ry

     iteration # 35     ecut=    40.00 Ry     beta= 0.05
     Davidson diagonalization with overlap
     ethr =  2.70E-09,  avg # of iterations =  2.0

     End of self-consistent calculation

          k = 0.0727 0.1257 0.1068 (  5839 PWs)   bands (ev):

   -12.5806 -12.2761 -12.0263  -8.1388  -8.1334  -7.8986  -7.8932  -7.7134
    -7.7084  -7.0011  -6.8388  -6.7037  -6.1749  -6.0541  -5.9528  -5.2030
    -5.1985  -5.0072  -5.0006  -4.8652  -4.8621  -1.7467  -0.5542   0.1167
     0.2196   0.2696   0.6147   0.6215   0.7037   0.7116   0.7469   0.7544
     0.7904   3.3262   3.3498   3.7193   3.7721   3.7911   3.9169   3.9511
     3.9862   4.2012   4.2811   4.2882   4.8796   5.1561   5.1785   5.5781
     8.1979   8.7828   8.8112   8.9597   9.5796   9.6307   9.6462  10.4128
    10.4451  11.3203

[...]

          k = 0.3629 0.1258-0.1062 (  5851 PWs)   bands (ev):

   -11.8196 -11.5257 -11.2875 -10.3175 -10.0451  -9.8282  -8.8506  -8.5997
    -8.4037  -7.4443  -7.2154  -7.0417  -4.6367  -4.4581  -4.3315  -3.3476
    -3.1854  -3.0718  -1.9644  -1.8987  -1.8107  -1.7644  -1.7086  -1.6801
    -0.8155  -0.7906  -0.6709  -0.6022   0.3488   0.9758   1.3440   1.3597
     1.4403   1.4431   1.4836   1.4993   1.6610   2.0993   2.6483   2.6640
     2.7521   2.7818   3.2937   3.7282   4.2259   4.7923   5.1157   6.0075
     8.5228   9.2101   9.8470  10.0842  10.7670  11.4154  12.1399  12.2571
    12.7998  13.5176

     the Fermi energy is     7.2393 ev

!    total energy              =    -287.15029323 Ry
     estimated scf accuracy    <       0.00000071 Ry
     smearing contrib. (-TS)   =      -0.00062306 Ry
     internal energy E=F+TS    =    -287.14967017 Ry

     The total energy is F=E-TS. E is the sum of the following terms:
     one-electron contribution =    -106.33154422 Ry
     hartree contribution      =     102.71605018 Ry
     xc contribution           =    -100.09385147 Ry
     ewald contribution        =    -183.44032466 Ry

     convergence has been achieved in  35 iterations

     Forces acting on atoms (cartesian axes, Ry/au):

     atom    1 type  1   force =     0.00271309   -0.00104393    0.00039136
     atom    2 type  1   force =    -0.00482037   -0.00212140    0.01246000
     atom    3 type  1   force =    -0.00208238    0.00063669   -0.01264758
     atom    4 type  1   force =    -0.00213887    0.00135558    0.00044648
     atom    5 type  1   force =     0.00252695    0.00068056    0.00000047
     atom    6 type  1   force =    -0.00033898    0.00075866    0.00102940
     atom    7 type  1   force =     0.00179961   -0.00104219    0.00042609
     atom    8 type  1   force =     0.00254790    0.00119924    0.00786689
     atom    9 type  1   force =    -0.00306357    0.00250752   -0.01021485
     atom   10 type  1   force =    -0.00171241    0.00140830    0.00036990
     atom   11 type  1   force =    -0.00189151   -0.00291776    0.00769131
     atom   12 type  1   force =     0.00332292   -0.00055385    0.00138170
     atom   13 type  1   force =     0.00203012   -0.00141821    0.00025892
     atom   14 type  1   force =    -0.00254981   -0.00086851    0.00083936
     atom   15 type  1   force =    -0.00178360    0.00073062    0.00417590
     atom   16 type  1   force =    -0.00196012    0.00102875    0.00044828
     atom   17 type  1   force =     0.00451085    0.00235018    0.01059597
     atom   18 type  1   force =     0.00262909   -0.00313667    0.00118649
     atom   19 type  1   force =     0.00226662   -0.00193264    0.00039650
     atom   20 type  1   force =     0.00191330    0.00297027    0.00896110
     atom   21 type  1   force =    -0.00094548    0.00027890   -0.01165051
     atom   22 type  1   force =    -0.00208976    0.00125958    0.00019345
     atom   23 type  1   force =    -0.00318039   -0.00080793    0.00851404
     atom   24 type  1   force =     0.00229680   -0.00132175   -0.03312067
     The non-local contrib.  to forces
     atom    1 type  1   force =     0.00146223    0.00000658    0.00519244
     atom    2 type  1   force =    -0.00489106   -0.00303832    0.01043663
     atom    3 type  1   force =    -0.00245015   -0.00108452   -0.01016465
     atom    4 type  1   force =    -0.00056618    0.00085452    0.00309016
     atom    5 type  1   force =     0.00174526    0.00088251    0.00039381
     atom    6 type  1   force =    -0.00115570    0.00170151   -0.00739564
     atom    7 type  1   force =    -0.00083902   -0.00001838    0.00512147
     atom    8 type  1   force =     0.00425509    0.00128762    0.00790301
     atom    9 type  1   force =    -0.00161232    0.00134406   -0.00923149
     atom   10 type  1   force =     0.00043355    0.00098851    0.00302298
     atom   11 type  1   force =    -0.00341698   -0.00349512    0.00789231
     atom   12 type  1   force =     0.00201223    0.00009626   -0.00814896
     atom   13 type  1   force =    -0.00001071   -0.00075960    0.00255961
     atom   14 type  1   force =    -0.00149915   -0.00122077    0.00178676
     atom   15 type  1   force =    -0.00057676   -0.00023063   -0.01471382
     atom   16 type  1   force =    -0.00016562    0.00016152    0.00306514
     atom   17 type  1   force =     0.00489182    0.00332595    0.01089173
     atom   18 type  1   force =     0.00181269   -0.00178435   -0.00784466
     atom   19 type  1   force =     0.00030712   -0.00206596    0.00515109
     atom   20 type  1   force =     0.00368031    0.00321316    0.00796605
     atom   21 type  1   force =     0.00007542    0.00037168   -0.00976696
     atom   22 type  1   force =    -0.00026552    0.00071288    0.00458735
     atom   23 type  1   force =    -0.00516581   -0.00075397    0.00806237
     atom   24 type  1   force =     0.00182782   -0.00043989   -0.01854741
     The ionic contribution  to forces
     atom    1 type  1   force =     0.01087103    0.00677984   -0.82303847
     atom    2 type  1   force =    -0.01664703   -0.01577465    4.74470801
     atom    3 type  1   force =    -0.01412111   -0.00498202   -3.90701184
     atom    4 type  1   force =    -0.00459894    0.00570219   -0.87496357
     atom    5 type  1   force =     0.01923147    0.00618257    4.97447113
     atom    6 type  1   force =    -0.00775007    0.00707426   -4.13796457
     atom    7 type  1   force =    -0.01599912    0.00794935   -0.82246830
     atom    8 type  1   force =     0.03377422    0.00011232    4.82295875
     atom    9 type  1   force =    -0.00429770    0.00150740   -3.95201293
     atom   10 type  1   force =     0.00757141    0.00435934   -0.87137254
     atom   11 type  1   force =    -0.01249392   -0.02700734    4.84043965
     atom   12 type  1   force =     0.00007267    0.00262264   -4.14510549
     atom   13 type  1   force =    -0.00470672   -0.00271017   -0.86880249
     atom   14 type  1   force =    -0.00868343   -0.01119621    4.93367136
     atom   15 type  1   force =    -0.00577154   -0.00060318   -4.20296136
     atom   16 type  1   force =     0.00270987   -0.00407542   -0.87578397
     atom   17 type  1   force =     0.02699942    0.01311585    4.78978332
     atom   18 type  1   force =     0.00002300   -0.00159203   -4.14209795
     atom   19 type  1   force =    -0.00148069   -0.01816052   -0.82214873
     atom   20 type  1   force =     0.02333337    0.02147860    4.80464963
     atom   21 type  1   force =    -0.00361208    0.00632487   -3.92500669
     atom   22 type  1   force =    -0.00075762    0.00284225   -0.81320300
     atom   23 type  1   force =    -0.02760868   -0.00212325    4.82586902
     atom   24 type  1   force =     0.00394219    0.00217332   -3.55260898
     The local contribution  to forces
     atom    1 type  1   force =    -0.00961437   -0.00782880    0.81878927
     atom    2 type  1   force =     0.01659205    0.01658803   -4.74291110
     atom    3 type  1   force =     0.01439861    0.00664353    3.90452961
     atom    4 type  1   force =     0.00305228   -0.00519017    0.87263097
     atom    5 type  1   force =    -0.01837701   -0.00634073   -4.97439548
     atom    6 type  1   force =     0.00853287   -0.00796108    4.14567653
     atom    7 type  1   force =     0.01858394   -0.00896931    0.81832172
     atom    8 type  1   force =    -0.03529952   -0.00017691   -4.82299570
     atom    9 type  1   force =     0.00282147   -0.00032948    3.95088663
     atom   10 type  1   force =    -0.00968443   -0.00391651    0.86903916
     atom   11 type  1   force =     0.01388634    0.02745059   -4.84049693
     atom   12 type  1   force =     0.00126543   -0.00327048    4.15388564
     atom   13 type  1   force =     0.00670673    0.00203667    0.86693410
     atom   14 type  1   force =     0.00757274    0.01149359   -4.93429890
     atom   15 type  1   force =     0.00456108    0.00153876    4.22082501
     atom   16 type  1   force =    -0.00448373    0.00495607    0.87347770
     atom   17 type  1   force =    -0.02725334   -0.01398725   -4.79005523
     atom   18 type  1   force =     0.00083765    0.00022526    4.15039405
     atom   19 type  1   force =     0.00341877    0.01824106    0.81794428
     atom   20 type  1   force =    -0.02495325   -0.02158756   -4.80371580
     atom   21 type  1   force =     0.00259804   -0.00639722    3.92306869
     atom   22 type  1   force =    -0.00104112   -0.00227497    0.80925109
     atom   23 type  1   force =     0.02938558    0.00205709   -4.82531785
     atom   24 type  1   force =    -0.00340321   -0.00304518    3.53909876
     The core correction contribution to forces
     atom    1 type  1   force =    -0.00000615   -0.00000296   -0.00019914
     atom    2 type  1   force =     0.00013737    0.00010038    0.00011732
     atom    3 type  1   force =     0.00009423    0.00006436   -0.00000528
     atom    4 type  1   force =    -0.00002300   -0.00001448    0.00004062
     atom    5 type  1   force =    -0.00007751   -0.00004822   -0.00058329
     atom    6 type  1   force =     0.00003592   -0.00006014    0.00069784
     atom    7 type  1   force =     0.00005131   -0.00000068   -0.00019467
     atom    8 type  1   force =    -0.00019048   -0.00002922   -0.00010769
     atom    9 type  1   force =     0.00002389   -0.00000932    0.00013272
     atom   10 type  1   force =    -0.00003386   -0.00002130    0.00003309
     atom   11 type  1   force =     0.00013430    0.00014261   -0.00024927
     atom   12 type  1   force =    -0.00003070   -0.00000456    0.00073110
     atom   13 type  1   force =     0.00003397    0.00001821   -0.00008567
     atom   14 type  1   force =     0.00006341    0.00006099   -0.00042528
     atom   15 type  1   force =     0.00000126    0.00002336    0.00101000
     atom   16 type  1   force =    -0.00002314   -0.00001256    0.00004083
     atom   17 type  1   force =    -0.00013703   -0.00010495   -0.00012707
     atom   18 type  1   force =    -0.00004539    0.00001944    0.00071656
     atom   19 type  1   force =     0.00002381    0.00005037   -0.00019698
     atom   20 type  1   force =    -0.00014939   -0.00013661   -0.00004725
     atom   21 type  1   force =    -0.00000464   -0.00002788    0.00004948
     atom   22 type  1   force =    -0.00002125   -0.00001775   -0.00008392
     atom   23 type  1   force =     0.00021723    0.00001606   -0.00020709
     atom   24 type  1   force =    -0.00007166   -0.00000631   -0.00104820
     The Hubbard contrib.    to forces
     atom    1 type  1   force =     0.00000000    0.00000000    0.00000000
     atom    2 type  1   force =     0.00000000    0.00000000    0.00000000
     atom    3 type  1   force =     0.00000000    0.00000000    0.00000000
     atom    4 type  1   force =     0.00000000    0.00000000    0.00000000
     atom    5 type  1   force =     0.00000000    0.00000000    0.00000000
     atom    6 type  1   force =     0.00000000    0.00000000    0.00000000
     atom    7 type  1   force =     0.00000000    0.00000000    0.00000000
     atom    8 type  1   force =     0.00000000    0.00000000    0.00000000
     atom    9 type  1   force =     0.00000000    0.00000000    0.00000000
     atom   10 type  1   force =     0.00000000    0.00000000    0.00000000
     atom   11 type  1   force =     0.00000000    0.00000000    0.00000000
     atom   12 type  1   force =     0.00000000    0.00000000    0.00000000
     atom   13 type  1   force =     0.00000000    0.00000000    0.00000000
     atom   14 type  1   force =     0.00000000    0.00000000    0.00000000
     atom   15 type  1   force =     0.00000000    0.00000000    0.00000000
     atom   16 type  1   force =     0.00000000    0.00000000    0.00000000
     atom   17 type  1   force =     0.00000000    0.00000000    0.00000000
     atom   18 type  1   force =     0.00000000    0.00000000    0.00000000
     atom   19 type  1   force =     0.00000000    0.00000000    0.00000000
     atom   20 type  1   force =     0.00000000    0.00000000    0.00000000
     atom   21 type  1   force =     0.00000000    0.00000000    0.00000000
     atom   22 type  1   force =     0.00000000    0.00000000    0.00000000
     atom   23 type  1   force =     0.00000000    0.00000000    0.00000000
     atom   24 type  1   force =     0.00000000    0.00000000    0.00000000
     The SCF correction term to forces
     atom    1 type  1   force =     0.00000016    0.00000170   -0.00033387
     atom    2 type  1   force =    -0.00001188    0.00000346    0.00012801
     atom    3 type  1   force =    -0.00000414   -0.00000437    0.00002345
     atom    4 type  1   force =    -0.00000320    0.00000381   -0.00033283
     atom    5 type  1   force =     0.00000457    0.00000472    0.00013317
     atom    6 type  1   force =    -0.00000217    0.00000440    0.00003411
     atom    7 type  1   force =     0.00000231   -0.00000288   -0.00033526
     atom    8 type  1   force =     0.00000842    0.00000573    0.00012737
     atom    9 type  1   force =     0.00000092   -0.00000485    0.00002908
     atom   10 type  1   force =     0.00000073   -0.00000144   -0.00033392
     atom   11 type  1   force =    -0.00000142   -0.00000821    0.00012442
     atom   12 type  1   force =     0.00000312    0.00000260    0.00003827
     atom   13 type  1   force =     0.00000667   -0.00000302   -0.00032775
     atom   14 type  1   force =    -0.00000356   -0.00000582    0.00012427
     atom   15 type  1   force =     0.00000219    0.00000260    0.00003493
     atom   16 type  1   force =     0.00000232   -0.00000056   -0.00033256
     atom   17 type  1   force =     0.00000980    0.00000088    0.00012209
     atom   18 type  1   force =     0.00000097   -0.00000468    0.00003735
     atom   19 type  1   force =    -0.00000256    0.00000271   -0.00033430
     atom   20 type  1   force =     0.00000208    0.00000297    0.00012733
     atom   21 type  1   force =    -0.00000239    0.00000774    0.00002383
     atom   22 type  1   force =    -0.00000443   -0.00000254   -0.00033921
     atom   23 type  1   force =    -0.00000889   -0.00000356    0.00012646
     atom   24 type  1   force =     0.00000148   -0.00000340    0.00000403

     Total force =     0.047790     Total SCF correction =     0.001014

     Computing stress (Cartesian axis) and pressure

          total   stress  (Ry/bohr**3)                   (kbar)     P=       74.48
   0.00056255  -0.00000312  -0.00000394           82.75       -0.46       -0.58
  -0.00000312   0.00058137   0.00000237           -0.46       85.52        0.35
  -0.00000394   0.00000237   0.00037509           -0.58        0.35       55.18

     Writing all to output data dir ../../results/server/1h2_abs_strain/1H2abs_C_strain.save/

     General routines

     Parallel routines

   This run was terminated on:   0:12:41   8Sep2024

   JOB DONE.