     Program PWSCF v.7.3.1 starts on  6Aug2024 at 22:18:55

     Reading input from graphene.in

     Current dimensions of program PWSCF are:
     Max number of different atomic species (ntypx) = 10
     Max number of k-points (npk) =  40000
     Max angular momentum in pseudopotentials (lmaxx) =  4

     IMPORTANT: XC functional enforced from input :
     Exchange-correlation= LDA
                           (   1   1   0   0   0   0   0)
     Any further DFT definition will be discarded
     Please, verify this is what you really want

     Found identity + ( -0.5000  0.0000  0.0000) symmetry
     This is a supercell, fractional translations are disabled

     R & G space division:  proc/nbgrp/npool/nimage =       2
     Subspace diagonalization in iterative solution of the eigenvalue problem:
     a serial algorithm will be used

     Using Slab Decomposition

     bravais-lattice index     =            4
     lattice parameter (alat)  =       8.0000  a.u.
     unit-cell volume          =     886.8115 (a.u.)^3
     number of atoms/cell      =           24
     number of atomic types    =            1
     number of electrons       =        96.00
     number of Kohn-Sham states=           58
     kinetic-energy cutoff     =      40.0000  Ry
     charge density cutoff     =     400.0000  Ry
     scf convergence threshold =      1.0E-06
     mixing beta               =       0.0500
     number of iterations used =            8  TF        mixing
     energy convergence thresh.=      1.0E-04
     force convergence thresh. =      1.0E-03
     press convergence thresh. =      5.0E-01
     Exchange-correlation= LDA
                           (   1   1   0   0   0   0   0)
     nstep                     =           50

     celldm(1)=   8.000004  celldm(2)=   0.000000  celldm(3)=   2.000000
     celldm(4)=   0.000000  celldm(5)=   0.000000  celldm(6)=   0.000000

     crystal axes: (cart. coord. in units of alat)
               a(1) = (   1.000000   0.000000   0.000000 )
               a(2) = (  -0.500000   0.866025   0.000000 )
               a(3) = (   0.000000   0.000000   2.000000 )

     reciprocal axes: (cart. coord. in units 2 pi/alat)
               b(1) = (  1.000000  0.577350 -0.000000 )
               b(2) = (  0.000000  1.154701  0.000000 )
               b(3) = (  0.000000 -0.000000  0.500000 )

     PseudoPot. # 1 for C  read from file:
     /home/edoardocabiati/.burai/.pseudopot/C.pz-n-rrkjus_psl.0.1.UPF
     MD5 check sum: a3cecbabebb5b3a1aff122f23eb09bb0
     Pseudo is Ultrasoft + core correction, Zval =  4.0
     Generated using "atomic" code by A. Dal Corso  v.5.0.2 svn rev. 9415
     Using radial grid of 1073 points,  4 beta functions with:
                l(1) =   0
                l(2) =   0
                l(3) =   1
                l(4) =   1
     Q(r) pseudized with 0 coefficients

     atomic species   valence    mass     pseudopotential
     C                 4.00    12.01100     C ( 1.00)

     12 Sym. Ops. (no inversion) found

   Cartesian axes

     site n.     atom                  positions (alat units)
         1        C      tau(   1) = (   0.0000000   0.0000000   0.3333320  )
         2        C      tau(   2) = (   0.0000000   0.0000000   1.0000000  )
         3        C      tau(   3) = (   0.0000000   0.0000000   1.6666660  )
         4        C      tau(   4) = (  -0.0000005   0.2886748   0.3333320  )
         5        C      tau(   5) = (   0.2500000   0.1443370   1.0000000  )
         6        C      tau(   6) = (  -0.0000005   0.2886748   1.6666660  )
         7        C      tau(   7) = (   0.5000000   0.0000000   0.3333320  )
         8        C      tau(   8) = (   0.5000000   0.0000000   1.0000000  )
         9        C      tau(   9) = (   0.5000000   0.0000000   1.6666660  )
        10        C      tau(  10) = (   0.4999995   0.2886748   0.3333320  )
        11        C      tau(  11) = (   0.7500000   0.1443370   1.0000000  )
        12        C      tau(  12) = (   0.4999995   0.2886748   1.6666660  )
        13        C      tau(  13) = (  -0.2500000   0.4330127   0.3333320  )
        14        C      tau(  14) = (  -0.2500000   0.4330127   1.0000000  )
        15        C      tau(  15) = (  -0.2500000   0.4330127   1.6666660  )
        16        C      tau(  16) = (  -0.2500005   0.7216875   0.3333320  )
        17        C      tau(  17) = (   0.0000000   0.5773497   1.0000000  )
        18        C      tau(  18) = (  -0.2500005   0.7216875   1.6666660  )
        19        C      tau(  19) = (   0.2500000   0.4330127   0.3333320  )
        20        C      tau(  20) = (   0.2500000   0.4330127   1.0000000  )
        21        C      tau(  21) = (   0.2500000   0.4330127   1.6666660  )
        22        C      tau(  22) = (   0.2499995   0.7216875   0.3333320  )
        23        C      tau(  23) = (   0.5000000   0.5773497   1.0000000  )
        24        C      tau(  24) = (   0.2499995   0.7216875   1.6666660  )

     number of k points=     1  Gaussian smearing, width (Ry)=  0.0100
                       cart. coord. in units 2pi/alat
        k(    1) = (   0.0000000   0.0000000   0.0000000), wk =   2.0000000

     Check: negative core charge=   -0.000002

     Initial potential from superposition of free atoms

     starting charge      95.9992, renormalised to      96.0000
     Starting wfcs are   96 randomized atomic wfcs

     Self-consistent Calculation

     iteration #  1     ecut=    40.00 Ry     beta= 0.05
     Davidson diagonalization with overlap
     ethr =  1.00E-02,  avg # of iterations =  5.0

     total energy              =    -284.90017138 Ry
     estimated scf accuracy    <       6.75262558 Ry

[...]

     End of self-consistent calculation

          k = 0.0000 0.0000 0.0000 (  3717 PWs)   bands (ev):

   -10.4162  -9.8381  -9.4737  -3.4813  -3.4813  -3.4812  -3.2139  -3.2138
    -3.2138  -2.8983  -2.8983  -2.8983  -2.3266  -2.3266  -2.3266  -2.0011
    -2.0011  -2.0011  -1.6623  -1.6622  -1.6622   0.8760   1.2041   4.2140
     5.6327   5.6327   5.6327   5.7096   5.7096   5.7096   6.1544   6.1544
     6.1545   8.9401   8.9401   8.9401   9.6336   9.6337   9.6337  10.7376
    10.7376  10.7377  10.8152  10.8154  10.8644  10.8646  11.3132  11.3133
    13.7323  13.7323  13.7324  15.1434  15.1434  15.1435  16.5369  16.5369
    16.5370  16.9179

     the Fermi energy is    12.6431 ev

!    total energy              =    -281.46975097 Ry
     estimated scf accuracy    <       0.00000085 Ry
     smearing contrib. (-TS)   =      -0.00000000 Ry
     internal energy E=F+TS    =    -281.46975097 Ry

     The total energy is F=E-TS. E is the sum of the following terms:
     one-electron contribution =      -3.10589717 Ry
     hartree contribution      =      73.85987887 Ry
     xc contribution           =    -109.23736109 Ry
     ewald contribution        =    -242.98637158 Ry

     convergence has been achieved in  32 iterations

     Forces acting on atoms (cartesian axes, Ry/au):

     atom    1 type  1   force =     0.00000000    0.00000000    0.01528481
     atom    2 type  1   force =     0.00000000   -0.00000000    0.00000000
     atom    3 type  1   force =    -0.00000000   -0.00000000   -0.01528481
     atom    4 type  1   force =    -0.00000000    0.00000485    0.02563725
     atom    5 type  1   force =    -0.00001982   -0.00001144   -0.00000000
     atom    6 type  1   force =    -0.00000000    0.00000485   -0.02563725
     atom    7 type  1   force =    -0.00000000   -0.00001139    0.01528368
     atom    8 type  1   force =     0.00000000    0.00000156    0.00000000
     atom    9 type  1   force =     0.00000000   -0.00001139   -0.01528368
     atom   10 type  1   force =     0.00000000    0.00000000    0.02563833
     atom   11 type  1   force =     0.00001982   -0.00001144    0.00000000
     atom   12 type  1   force =     0.00000000    0.00000000   -0.02563833
     atom   13 type  1   force =     0.00000986    0.00000569    0.01528368
     atom   14 type  1   force =    -0.00000135   -0.00000078    0.00000000
     atom   15 type  1   force =     0.00000986    0.00000569   -0.01528368
     atom   16 type  1   force =     0.00000420   -0.00000243    0.02563725
     atom   17 type  1   force =     0.00000000   -0.00000000    0.00000000
     atom   18 type  1   force =     0.00000420   -0.00000243   -0.02563725
     atom   19 type  1   force =    -0.00000986    0.00000569    0.01528368
     atom   20 type  1   force =     0.00000135   -0.00000078    0.00000000
     atom   21 type  1   force =    -0.00000986    0.00000569   -0.01528368
     atom   22 type  1   force =    -0.00000420   -0.00000243    0.02563725
     atom   23 type  1   force =     0.00000000    0.00002288    0.00000000
     atom   24 type  1   force =    -0.00000420   -0.00000243   -0.02563725

     Total force =     0.084422     Total SCF correction =     0.000846

     Computing stress (Cartesian axis) and pressure

          total   stress  (Ry/bohr**3)                   (kbar)     P=     3014.33
   0.03089764   0.00000000  -0.00000000         4545.20        0.00       -0.00
   0.00000000   0.03089764   0.00000000            0.00     4545.20        0.00
  -0.00000000   0.00000000  -0.00032235           -0.00        0.00      -47.42

     BFGS Geometry Optimization
     Energy error            =      0.0E+00 Ry
     Gradient error          =      2.6E-02 Ry/Bohr
     Cell gradient error     =      4.5E+03 kbar

     number of scf cycles    =   1
     number of bfgs steps    =   0

     enthalpy           new  =    -281.4697509704 Ry

     new trust radius        =       0.5000000000 bohr
     new conv_thr            =       0.0000010000 Ry

     new unit-cell volume =   1041.04576 a.u.^3 (   154.26707 Ang^3 )
     density =      3.10289 g/cm^3

CELL_PARAMETERS (alat=  8.00000437)
   1.083950707   0.000000000  -0.000000000
  -0.541975354   0.938728849   0.000000000
  -0.000000000   0.000000000   1.998248291

ATOMIC_POSITIONS (crystal)
C                0.0000000000       -0.0000000000        0.1667698243    0   0   1
C                0.0000000000       -0.0000000000        0.5000000000    0   0   1
C                0.0000000000        0.0000000000        0.8332291757    0   0   1
C                0.1666660000        0.3333330000        0.1668401447    0   0   1
C                0.3333330000        0.1666660000        0.5000000000    0   0   1
C                0.1666660000        0.3333330000        0.8331588553    0   0   1
C                0.5000000000       -0.0000000000        0.1667698166    0   0   1
C                0.5000000000       -0.0000000000        0.5000000000    0   0   1
C                0.5000000000       -0.0000000000        0.8332291834    0   0   1
C                0.6666660000        0.3333330000        0.1668401520    0   0   1
C                0.8333330000        0.1666660000        0.5000000000    0   0   1
C                0.6666660000        0.3333330000        0.8331588480    0   0   1
C               -0.0000000000        0.5000000000        0.1667698166    0   0   1
C               -0.0000000000        0.5000000000        0.5000000000    0   0   1
C               -0.0000000000        0.5000000000        0.8332291834    0   0   1
C                0.1666660000        0.8333330000        0.1668401447    0   0   1
C                0.3333330000        0.6666660000        0.5000000000    0   0   1
C                0.1666660000        0.8333330000        0.8331588553    0   0   1
C                0.5000000000        0.5000000000        0.1667698166    0   0   1
C                0.5000000000        0.5000000000        0.5000000000    0   0   1
C                0.5000000000        0.5000000000        0.8332291834    0   0   1
C                0.6666660000        0.8333330000        0.1668401447    0   0   1
C                0.8333330000        0.6666660000        0.5000000000    0   0   1
C                0.6666660000        0.8333330000        0.8331588553    0   0   1

     Writing config-only to output data dir ../results/graphene/graphene.save/ :
     XML data file
     NEW-OLD atomic charge density approx. for the potential

[...]

     Energy error            =      3.1E+00 Ry
     Gradient error          =      2.9E-02 Ry/Bohr
     Cell gradient error     =      1.6E+03 kbar

[...]

     enthalpy           old  =    -281.4697509704 Ry
     enthalpy           new  =    -284.5418471942 Ry

     CASE: enthalpy          _new < enthalpy          _old

[...]

     number of scf cycles    =  13
     number of bfgs steps    =  12

     enthalpy           old  =    -285.4774490507 Ry
     enthalpy           new  =    -285.4775799125 Ry

     CASE: enthalpy          _new < enthalpy          _old

     new trust radius        =       0.0011805287 bohr
     new conv_thr            =       0.0000000100 Ry

     new unit-cell volume =   1170.44719 a.u.^3 (   173.44238 Ang^3 )
     density =      2.75984 g/cm^3

[...]

ATOMIC_POSITIONS (crystal)
C                0.0000000000       -0.0000000000        0.2035681128    0   0   1
C               -0.0000000000       -0.0000000000        0.5000000000    0   0   1
C               -0.0000000000        0.0000000000        0.7964308872    0   0   1
C                0.1666660000        0.3333330000        0.2033340963    0   0   1
C                0.3333330000        0.1666660000        0.5000000000    0   0   1
C                0.1666660000        0.3333330000        0.7966649037    0   0   1
C                0.5000000000       -0.0000000000        0.2035682222    0   0   1
C                0.5000000000       -0.0000000000        0.5000000000    0   0   1
C                0.5000000000        0.0000000000        0.7964307778    0   0   1
C                0.6666660000        0.3333330000        0.2033341999    0   0   1
C                0.8333330000        0.1666660000        0.5000000000    0   0   1
C                0.6666660000        0.3333330000        0.7966648001    0   0   1
C               -0.0000000000        0.5000000000        0.2035682222    0   0   1
C               -0.0000000000        0.5000000000        0.5000000000    0   0   1
C               -0.0000000000        0.5000000000        0.7964307778    0   0   1
C                0.1666660000        0.8333330000        0.2033340963    0   0   1
C                0.3333330000        0.6666660000        0.5000000000    0   0   1
C                0.1666660000        0.8333330000        0.7966649037    0   0   1
C                0.5000000000        0.5000000000        0.2035682222    0   0   1
C                0.5000000000        0.5000000000        0.5000000000    0   0   1
C                0.5000000000        0.5000000000        0.7964307778    0   0   1
C                0.6666660000        0.8333330000        0.2033340963    0   0   1
C                0.8333330000        0.6666660000        0.5000000000    0   0   1
C                0.6666660000        0.8333330000        0.7966649037    0   0   1

     Writing config-only to output data dir ../results/graphene/graphene.save/ :
     XML data file
     NEW-OLD atomic charge density approx. for the potential

[...]

     Threshold (ethr) on eigenvalues was too large:
     Diagonalizing with lowered threshold

     Davidson diagonalization with overlap
     ethr =  2.60E-09,  avg # of iterations =  6.0

[...]

     Total force =     0.000050     Total SCF correction =     0.000228
     SCF correction compared to forces is large: reduce conv_thr to get better values

[...]

     Energy error            =      2.5E-06 Ry
     Gradient error          =      1.7E-05 Ry/Bohr
     Cell gradient error     =      2.1E-01 kbar

     bfgs converged in  14 scf cycles and  13 bfgs steps
     (criteria: energy <  1.0E-04 Ry, force <  1.0E-03 Ry/Bohr, cell <  5.0E-01 kbar)

     End of BFGS Geometry Optimization

     Final enthalpy           =    -285.4775824281 Ry

     File ../results/graphene/graphene.bfgs deleted, as requested
Begin final coordinates
     new unit-cell volume =   1170.44719 a.u.^3 (   173.44238 Ang^3 )
     density =      2.75984 g/cm^3

CELL_PARAMETERS (alat=  8.00000437)
   1.166354475   0.000000000   0.000000000
  -0.583177238   1.010092605  -0.000000000
  -0.000000000   0.000000000   1.940391656

ATOMIC_POSITIONS (crystal)
C                0.0000000000       -0.0000000000        0.2035681128    0   0   1
C               -0.0000000000       -0.0000000000        0.5000000000    0   0   1
C               -0.0000000000        0.0000000000        0.7964308872    0   0   1
C                0.1666660000        0.3333330000        0.2033340963    0   0   1
C                0.3333330000        0.1666660000        0.5000000000    0   0   1
C                0.1666660000        0.3333330000        0.7966649037    0   0   1
C                0.5000000000       -0.0000000000        0.2035682222    0   0   1
C                0.5000000000       -0.0000000000        0.5000000000    0   0   1
C                0.5000000000        0.0000000000        0.7964307778    0   0   1
C                0.6666660000        0.3333330000        0.2033341999    0   0   1
C                0.8333330000        0.1666660000        0.5000000000    0   0   1
C                0.6666660000        0.3333330000        0.7966648001    0   0   1
C               -0.0000000000        0.5000000000        0.2035682222    0   0   1
C               -0.0000000000        0.5000000000        0.5000000000    0   0   1
C               -0.0000000000        0.5000000000        0.7964307778    0   0   1
C                0.1666660000        0.8333330000        0.2033340963    0   0   1
C                0.3333330000        0.6666660000        0.5000000000    0   0   1
C                0.1666660000        0.8333330000        0.7966649037    0   0   1
C                0.5000000000        0.5000000000        0.2035682222    0   0   1
C                0.5000000000        0.5000000000        0.5000000000    0   0   1
C                0.5000000000        0.5000000000        0.7964307778    0   0   1
C                0.6666660000        0.8333330000        0.2033340963    0   0   1
C                0.8333330000        0.6666660000        0.5000000000    0   0   1
C                0.6666660000        0.8333330000        0.7966649037    0   0   1
End final coordinates

     Writing config-only to output data dir ../results/graphene/graphene.save/ :
     XML data file

     Final scf calculation at the relaxed structure.
     The G-vectors are recalculated for the final unit cell
     Results may differ from those at the preceding step.

     Using Slab Decomposition

     bravais-lattice index     =            4
     lattice parameter (alat)  =       8.0000  a.u.
     unit-cell volume          =    1170.4472 (a.u.)^3
     number of atoms/cell      =           24
     number of atomic types    =            1
     number of electrons       =        96.00
     number of Kohn-Sham states=           58
     kinetic-energy cutoff     =      40.0000  Ry
     charge density cutoff     =     400.0000  Ry
     scf convergence threshold =      1.0E-08
     mixing beta               =       0.0500
     number of iterations used =            8  TF        mixing
     press convergence thresh. =      5.0E-01
     Exchange-correlation= LDA
                           (   1   1   0   0   0   0   0)

     celldm(1)=   8.000004  celldm(2)=   0.000000  celldm(3)=   2.000000
     celldm(4)=   0.000000  celldm(5)=   0.000000  celldm(6)=   0.000000

     crystal axes: (cart. coord. in units of alat)
               a(1) = (   1.166354   0.000000   0.000000 )
               a(2) = (  -0.583177   1.010093  -0.000000 )
               a(3) = (  -0.000000   0.000000   1.940392 )

     reciprocal axes: (cart. coord. in units 2 pi/alat)
               b(1) = (  0.857372  0.495004 -0.000000 )
               b(2) = ( -0.000000  0.990008 -0.000000 )
               b(3) = ( -0.000000 -0.000000  0.515360 )

     PseudoPot. # 1 for C  read from file:
     /home/edoardocabiati/.burai/.pseudopot/C.pz-n-rrkjus_psl.0.1.UPF
     MD5 check sum: a3cecbabebb5b3a1aff122f23eb09bb0
     Pseudo is Ultrasoft + core correction, Zval =  4.0
     Generated using "atomic" code by A. Dal Corso  v.5.0.2 svn rev. 9415
     Using radial grid of 1073 points,  4 beta functions with:
                l(1) =   0
                l(2) =   0
                l(3) =   1
                l(4) =   1
     Q(r) pseudized with 0 coefficients

     atomic species   valence    mass     pseudopotential
     C                 4.00    12.01100     C ( 1.00)

     12 Sym. Ops. (no inversion) found

   Cartesian axes

     site n.     atom                  positions (alat units)
         1        C      tau(   1) = (  -0.0000000   0.0000000   0.3950019  )
         2        C      tau(   2) = (  -0.0000000   0.0000000   0.9701958  )
         3        C      tau(   3) = (  -0.0000000   0.0000000   1.5453878  )
         4        C      tau(   4) = (  -0.0000006   0.3366972   0.3945478  )
         5        C      tau(   5) = (   0.2915886   0.1683481   0.9701958  )
         6        C      tau(   6) = (  -0.0000006   0.3366972   1.5458419  )
         7        C      tau(   7) = (   0.5831772   0.0000000   0.3950021  )
         8        C      tau(   8) = (   0.5831772   0.0000000   0.9701958  )
         9        C      tau(   9) = (   0.5831772   0.0000000   1.5453876  )
        10        C      tau(  10) = (   0.5831767   0.3366972   0.3945480  )
        11        C      tau(  11) = (   0.8747659   0.1683481   0.9701958  )
        12        C      tau(  12) = (   0.5831767   0.3366972   1.5458417  )
        13        C      tau(  13) = (  -0.2915886   0.5050463   0.3950021  )
        14        C      tau(  14) = (  -0.2915886   0.5050463   0.9701958  )
        15        C      tau(  15) = (  -0.2915886   0.5050463   1.5453876  )
        16        C      tau(  16) = (  -0.2915892   0.8417435   0.3945478  )
        17        C      tau(  17) = (   0.0000000   0.6733944   0.9701958  )
        18        C      tau(  18) = (  -0.2915892   0.8417435   1.5458419  )
        19        C      tau(  19) = (   0.2915886   0.5050463   0.3950021  )
        20        C      tau(  20) = (   0.2915886   0.5050463   0.9701958  )
        21        C      tau(  21) = (   0.2915886   0.5050463   1.5453876  )
        22        C      tau(  22) = (   0.2915880   0.8417435   0.3945478  )
        23        C      tau(  23) = (   0.5831772   0.6733944   0.9701958  )
        24        C      tau(  24) = (   0.2915880   0.8417435   1.5458419  )

     number of k points=     1  Gaussian smearing, width (Ry)=  0.0100
                       cart. coord. in units 2pi/alat
        k(    1) = (   0.0000000   0.0000000   0.0000000), wk =   2.0000000

     Check: negative core charge=   -0.000002

     Initial potential from superposition of free atoms

     starting charge      95.9992, renormalised to      96.0000
     Starting wfcs are   96 randomized atomic wfcs

     Self-consistent Calculation

     iteration #  1     ecut=    40.00 Ry     beta= 0.05
     Davidson diagonalization with overlap
     c_bands:  1 eigenvalues not converged
     ethr =  1.00E-06,  avg # of iterations = 20.0

[...]

     total energy              =    -285.54482935 Ry
     estimated scf accuracy    <       0.00000001 Ry

     iteration # 36     ecut=    40.00 Ry     beta= 0.05
     Davidson diagonalization with overlap
     ethr =  1.21E-11,  avg # of iterations =  2.0

     End of self-consistent calculation

          k = 0.0000 0.0000 0.0000 (  5035 PWs)   bands (ev):

   -10.8399 -10.0298  -9.1600  -5.2644  -5.2643  -5.2643  -4.7251  -4.7251
    -4.7251  -4.7151  -4.7151  -4.7151  -3.8496  -3.8496  -3.8495  -3.6569
    -3.6569  -3.6569  -3.3225  -3.3225  -3.3225  -0.1662   1.3015   2.7653
     2.7654   2.7654   2.9761   2.9762   2.9762   3.3419   3.3419   3.3420
     5.1989   5.6661   5.6661   5.6662   6.3003   6.3003   6.3700   6.3701
     6.6004   6.6005   6.6018   6.6019   6.6019   7.5076   7.5076   7.5076
    10.3937  10.3937  10.3938  11.8832  11.8832  11.8832  12.5649  12.5649
    12.5649  15.6848

     the Fermi energy is     9.7339 ev

!    total energy              =    -285.54482957 Ry
     estimated scf accuracy    <          8.7E-09 Ry
     smearing contrib. (-TS)   =      -0.00000000 Ry
     internal energy E=F+TS    =    -285.54482957 Ry

     The total energy is F=E-TS. E is the sum of the following terms:
     one-electron contribution =     -24.45212706 Ry
     hartree contribution      =      70.62098182 Ry
     xc contribution           =    -100.14140515 Ry
     ewald contribution        =    -231.57227918 Ry

     convergence has been achieved in  36 iterations

     Forces acting on atoms (cartesian axes, Ry/au):

     atom    1 type  1   force =    -0.00000000    0.00000000    0.00014847
     atom    2 type  1   force =    -0.00000000    0.00000000   -0.00000000
     atom    3 type  1   force =     0.00000000    0.00000000   -0.00014847
     atom    4 type  1   force =    -0.00000000    0.00000030    0.00013347
     atom    5 type  1   force =     0.00000114    0.00000066   -0.00000000
     atom    6 type  1   force =     0.00000000    0.00000030   -0.00013347
     atom    7 type  1   force =     0.00000000   -0.00000013    0.00014790
     atom    8 type  1   force =    -0.00000000    0.00000099   -0.00000000
     atom    9 type  1   force =     0.00000000   -0.00000013   -0.00014790
     atom   10 type  1   force =    -0.00000000   -0.00000000    0.00013297
     atom   11 type  1   force =    -0.00000114    0.00000066   -0.00000000
     atom   12 type  1   force =     0.00000000   -0.00000000   -0.00013297
     atom   13 type  1   force =     0.00000011    0.00000006    0.00014790
     atom   14 type  1   force =    -0.00000085   -0.00000049    0.00000000
     atom   15 type  1   force =     0.00000011    0.00000006   -0.00014790
     atom   16 type  1   force =     0.00000026   -0.00000015    0.00013347
     atom   17 type  1   force =    -0.00000000    0.00000000   -0.00000000
     atom   18 type  1   force =     0.00000026   -0.00000015   -0.00013347
     atom   19 type  1   force =    -0.00000011    0.00000006    0.00014790
     atom   20 type  1   force =     0.00000085   -0.00000049    0.00000000
     atom   21 type  1   force =    -0.00000011    0.00000006   -0.00014790
     atom   22 type  1   force =    -0.00000026   -0.00000015    0.00013347
     atom   23 type  1   force =     0.00000000   -0.00000132   -0.00000000
     atom   24 type  1   force =    -0.00000026   -0.00000015   -0.00013347

     Total force =     0.000564     Total SCF correction =     0.000032

     Computing stress (Cartesian axis) and pressure

          total   stress  (Ry/bohr**3)                   (kbar)     P=       64.73
   0.00060809   0.00000000   0.00000000           89.45        0.00        0.00
   0.00000000   0.00060809  -0.00000000            0.00       89.45       -0.00
   0.00000000  -0.00000000   0.00010393            0.00       -0.00       15.29

     Writing all to output data dir ../results/graphene/graphene.save/ :
     XML data file, charge density, pseudopotentials, collected wavefunctions

     General routines

     Parallel routines

   This run was terminated on:  22:31:20   6Aug2024

   JOB DONE.