     Program PWSCF v.7.3.1 starts on  5Aug2024 at 21:22:30

     Reading input from graphene-base.in

     Current dimensions of program PWSCF are:
     Max number of different atomic species (ntypx) = 10
     Max number of k-points (npk) =  40000
     Max angular momentum in pseudopotentials (lmaxx) =  4

     File ../results/graphene-base/graphene-base.update deleted, as requested

     File ../results/graphene-base/graphene-base.bfgs deleted, as requested

     IMPORTANT: XC functional enforced from input :
     Exchange-correlation= LDA
                           (   1   1   0   0   0   0   0)
     Any further DFT definition will be discarded
     Please, verify this is what you really want

     R & G space division:  proc/nbgrp/npool/nimage =       2
     Subspace diagonalization in iterative solution of the eigenvalue problem:
     a serial algorithm will be used

     Using Slab Decomposition

     bravais-lattice index     =            4
     lattice parameter (alat)  =       4.0000  a.u.
     unit-cell volume          =     110.8513 (a.u.)^3
     number of atoms/cell      =            4
     number of atomic types    =            1
     number of electrons       =        16.00
     number of Kohn-Sham states=           12
     kinetic-energy cutoff     =      40.0000  Ry
     charge density cutoff     =     160.0000  Ry
     scf convergence threshold =      1.0E-06
     mixing beta               =       0.7000
     number of iterations used =            8  TF        mixing
     energy convergence thresh.=      1.0E-04
     force convergence thresh. =      1.0E-03
     press convergence thresh. =      5.0E-01
     Exchange-correlation= LDA
                           (   1   1   0   0   0   0   0)
     nstep                     =           50

     celldm(1)=   4.000000  celldm(2)=   0.000000  celldm(3)=   2.000000
     celldm(4)=   0.000000  celldm(5)=   0.000000  celldm(6)=   0.000000

     crystal axes: (cart. coord. in units of alat)
               a(1) = (   1.000000   0.000000   0.000000 )
               a(2) = (  -0.500000   0.866025   0.000000 )
               a(3) = (   0.000000   0.000000   2.000000 )

     reciprocal axes: (cart. coord. in units 2 pi/alat)
               b(1) = (  1.000000  0.577350 -0.000000 )
               b(2) = (  0.000000  1.154701  0.000000 )
               b(3) = (  0.000000 -0.000000  0.500000 )

     PseudoPot. # 1 for C  read from file:
     /home/edoardocabiati/.burai/.pseudopot/C.pz-n-rrkjus_psl.0.1.UPF
     MD5 check sum: a3cecbabebb5b3a1aff122f23eb09bb0
     Pseudo is Ultrasoft + core correction, Zval =  4.0
     Generated using "atomic" code by A. Dal Corso  v.5.0.2 svn rev. 9415
     Using radial grid of 1073 points,  4 beta functions with:
                l(1) =   0
                l(2) =   0
                l(3) =   1
                l(4) =   1
     Q(r) pseudized with 0 coefficients

     atomic species   valence    mass     pseudopotential
     C                 4.00    12.01100     C ( 1.00)

     24 Sym. Ops., with inversion, found (12 have fractional translation)

   Cartesian axes

     site n.     atom                  positions (alat units)
         1        C      tau(   1) = (   0.0000000   0.0000000   0.5000000  )
         2        C      tau(   2) = (   0.0000000   0.0000000   1.5000000  )
         3        C      tau(   3) = (   0.0000000   0.5773497   0.5000000  )
         4        C      tau(   4) = (   0.4999995   0.2886748   1.5000000  )

     number of k points=    12  Gaussian smearing, width (Ry)=  0.0100
                       cart. coord. in units 2pi/alat
        k(    1) = (   0.0833333   0.1443376   0.1250000), wk =   0.1111111
        k(    2) = (   0.0833333   0.3367877   0.1250000), wk =   0.2222222
        k(    3) = (   0.0833333   0.5292377   0.1250000), wk =   0.2222222
        k(    4) = (   0.0833333  -0.4330127   0.1250000), wk =   0.2222222
        k(    5) = (   0.0833333  -0.2405626   0.1250000), wk =   0.2222222
        k(    6) = (   0.0833333  -0.0481125   0.1250000), wk =   0.1111111
        k(    7) = (   0.2500000   0.4330127   0.1250000), wk =   0.1111111
        k(    8) = (   0.2500000   0.6254628   0.1250000), wk =   0.2222222
        k(    9) = (   0.2500000  -0.3367877   0.1250000), wk =   0.2222222
        k(   10) = (   0.2500000  -0.1443376   0.1250000), wk =   0.1111111
        k(   11) = (   0.4166667   0.7216878   0.1250000), wk =   0.1111111
        k(   12) = (   0.4166667  -0.2405626   0.1250000), wk =   0.1111111

     Check: negative core charge=   -0.000052

     Initial potential from superposition of free atoms

     starting charge      15.9999, renormalised to      16.0000
     Starting wfcs are   16 randomized atomic wfcs

     Self-consistent Calculation

     iteration #  1     ecut=    40.00 Ry     beta= 0.70
     Davidson diagonalization with overlap
     ethr =  1.00E-02,  avg # of iterations =  5.3

     total energy              =     -47.19607710 Ry
     estimated scf accuracy    <       0.74207043 Ry

[...]

     End of self-consistent calculation

          k = 0.0833 0.1443 0.1250 (   463 PWs)   bands (ev):

    -5.9355  -3.1700   5.4237  13.0265  13.5889  13.8435  14.4339  14.6437
    29.9413  30.3383  32.1300  32.6948

[...]

     the Fermi energy is    18.4087 ev

!    total energy              =     -47.14210357 Ry
     estimated scf accuracy    <       0.00000003 Ry
     smearing contrib. (-TS)   =      -0.00000000 Ry
     internal energy E=F+TS    =     -47.14210357 Ry

     The total energy is F=E-TS. E is the sum of the following terms:
     one-electron contribution =      19.48036452 Ry
     hartree contribution      =       5.20730438 Ry
     xc contribution           =     -18.40077848 Ry
     ewald contribution        =     -53.42899400 Ry

     convergence has been achieved in   7 iterations

     Forces acting on atoms (cartesian axes, Ry/au):

     atom    1 type  1   force =    -0.00000000   -0.00000000    0.00000000
     atom    2 type  1   force =     0.00000000    0.00000000    0.00000000
     atom    3 type  1   force =     0.00000000   -0.00000000    0.00000000
     atom    4 type  1   force =     0.00000000    0.00000000    0.00000000

     Total force =     0.000000     Total SCF correction =     0.000000

     Computing stress (Cartesian axis) and pressure

          total   stress  (Ry/bohr**3)                   (kbar)     P=     4145.74
   0.03546161   0.00000000   0.00000000         5216.58        0.00        0.00
   0.00000000   0.03546161   0.00000000            0.00     5216.58        0.00
   0.00000000   0.00000000   0.01362335            0.00        0.00     2004.06

     BFGS Geometry Optimization
     Energy error            =      0.0E+00 Ry
     Gradient error          =      2.3E-22 Ry/Bohr
     Cell gradient error     =      5.2E+03 kbar

     number of scf cycles    =   1
     number of bfgs steps    =   0

     enthalpy           new  =     -47.1421035739 Ry

     new trust radius        =       0.5000000000 bohr
     new conv_thr            =       0.0000010000 Ry

     new unit-cell volume =    185.22846 a.u.^3 (    27.44803 Ang^3 )
     density =      2.90655 g/cm^3

CELL_PARAMETERS (alat=  4.00000000)
   1.237448652   0.000000000   0.000000000
  -0.618724326   1.071661968   0.000000000
   0.000000000   0.000000000   2.182442160

ATOMIC_POSITIONS (crystal)
C               -0.0000000000       -0.0000000000        0.2500000000
C                0.0000000000        0.0000000000        0.7500000000
C                0.3333330000        0.6666660000        0.2500000000
C                0.6666660000        0.3333330000        0.7500000000

     Writing config-only to output data dir ../results/graphene-base/graphene-base.save/ :
     XML data file
     NEW-OLD atomic charge density approx. for the potential

[...]

     iteration #  1     ecut=    40.00 Ry     beta= 0.70
     Davidson diagonalization with overlap
     c_bands:  1 eigenvalues not converged
     c_bands:  1 eigenvalues not converged
     c_bands:  2 eigenvalues not converged
     c_bands:  1 eigenvalues not converged
     c_bands:  1 eigenvalues not converged
     c_bands:  1 eigenvalues not converged
     ethr =  1.00E-06,  avg # of iterations = 17.8

[...]

     Energy error            =      4.9E-01 Ry
     Gradient error          =      5.3E-22 Ry/Bohr
     Cell gradient error     =      1.2E+03 kbar

[...]

     enthalpy           old  =     -47.1421035739 Ry
     enthalpy           new  =     -47.6337114639 Ry

     CASE: enthalpy          _new < enthalpy          _old

[...]

     Threshold (ethr) on eigenvalues was too large:
     Diagonalizing with lowered threshold

     Davidson diagonalization with overlap
     ethr =  2.18E-08,  avg # of iterations =  3.3

[...]

     number of scf cycles    =   6
     number of bfgs steps    =   5

     enthalpy           old  =     -47.8071783342 Ry
     enthalpy           new  =     -47.8072160471 Ry

     CASE: enthalpy          _new < enthalpy          _old

     new trust radius        =       0.0004444116 bohr
     new conv_thr            =       0.0000000100 Ry

     new unit-cell volume =    182.97527 a.u.^3 (    27.11414 Ang^3 )
     density =      2.94234 g/cm^3

[...]

ATOMIC_POSITIONS (crystal)
C               -0.0000000000       -0.0000000000        0.2500000000
C                0.0000000000        0.0000000000        0.7500000000
C                0.3333330000        0.6666660000        0.2500000000
C                0.6666660000        0.3333330000        0.7500000000

     Writing config-only to output data dir ../results/graphene-base/graphene-base.save/ :
     XML data file
     NEW-OLD atomic charge density approx. for the potential

[...]

     Threshold (ethr) on eigenvalues was too large:
     Diagonalizing with lowered threshold

     Davidson diagonalization with overlap
     ethr =  5.60E-10,  avg # of iterations =  2.6

[...]

     Energy error            =      2.3E-07 Ry
     Gradient error          =      5.0E-22 Ry/Bohr
     Cell gradient error     =      1.1E-01 kbar

     bfgs converged in   7 scf cycles and   6 bfgs steps
     (criteria: energy <  1.0E-04 Ry, force <  1.0E-03 Ry/Bohr, cell <  5.0E-01 kbar)

     End of BFGS Geometry Optimization

     Final enthalpy           =     -47.8072162813 Ry

     File ../results/graphene-base/graphene-base.bfgs deleted, as requested
Begin final coordinates
     new unit-cell volume =    182.97527 a.u.^3 (    27.11414 Ang^3 )
     density =      2.94234 g/cm^3

CELL_PARAMETERS (alat=  4.00000000)
   1.145208981   0.000000000  -0.000000000
  -0.572604490   0.991780070  -0.000000000
  -0.000000000  -0.000000000   2.517168608

ATOMIC_POSITIONS (crystal)
C               -0.0000000000       -0.0000000000        0.2500000000
C                0.0000000000        0.0000000000        0.7500000000
C                0.3333330000        0.6666660000        0.2500000000
C                0.6666660000        0.3333330000        0.7500000000
End final coordinates

     Writing config-only to output data dir ../results/graphene-base/graphene-base.save/ :
     XML data file

     Final scf calculation at the relaxed structure.
     The G-vectors are recalculated for the final unit cell
     Results may differ from those at the preceding step.

     Using Slab Decomposition

     bravais-lattice index     =            4
     lattice parameter (alat)  =       4.0000  a.u.
     unit-cell volume          =     182.9753 (a.u.)^3
     number of atoms/cell      =            4
     number of atomic types    =            1
     number of electrons       =        16.00
     number of Kohn-Sham states=           12
     kinetic-energy cutoff     =      40.0000  Ry
     charge density cutoff     =     160.0000  Ry
     scf convergence threshold =      1.0E-08
     mixing beta               =       0.7000
     number of iterations used =            8  TF        mixing
     press convergence thresh. =      5.0E-01
     Exchange-correlation= LDA
                           (   1   1   0   0   0   0   0)

     celldm(1)=   4.000000  celldm(2)=   0.000000  celldm(3)=   2.000000
     celldm(4)=   0.000000  celldm(5)=   0.000000  celldm(6)=   0.000000

     crystal axes: (cart. coord. in units of alat)
               a(1) = (   1.145209   0.000000  -0.000000 )
               a(2) = (  -0.572604   0.991780  -0.000000 )
               a(3) = (  -0.000000  -0.000000   2.517169 )

     reciprocal axes: (cart. coord. in units 2 pi/alat)
               b(1) = (  0.873203  0.504144  0.000000 )
               b(2) = ( -0.000000  1.008288  0.000000 )
               b(3) = (  0.000000  0.000000  0.397272 )

     PseudoPot. # 1 for C  read from file:
     /home/edoardocabiati/.burai/.pseudopot/C.pz-n-rrkjus_psl.0.1.UPF
     MD5 check sum: a3cecbabebb5b3a1aff122f23eb09bb0
     Pseudo is Ultrasoft + core correction, Zval =  4.0
     Generated using "atomic" code by A. Dal Corso  v.5.0.2 svn rev. 9415
     Using radial grid of 1073 points,  4 beta functions with:
                l(1) =   0
                l(2) =   0
                l(3) =   1
                l(4) =   1
     Q(r) pseudized with 0 coefficients

     atomic species   valence    mass     pseudopotential
     C                 4.00    12.01100     C ( 1.00)

     24 Sym. Ops., with inversion, found (12 have fractional translation)

   Cartesian axes

     site n.     atom                  positions (alat units)
         1        C      tau(   1) = (  -0.0000000  -0.0000000   0.6292922  )
         2        C      tau(   2) = (   0.0000000   0.0000000   1.8878765  )
         3        C      tau(   3) = (   0.0000000   0.6611861   0.6292922  )
         4        C      tau(   4) = (   0.5726039   0.3305930   1.8878765  )

     number of k points=    12  Gaussian smearing, width (Ry)=  0.0100
                       cart. coord. in units 2pi/alat
        k(    1) = (   0.0727669   0.1260360   0.0993179), wk =   0.1111111
        k(    2) = (   0.0727669   0.2940840   0.0993179), wk =   0.2222222
        k(    3) = (   0.0727669   0.4621320   0.0993179), wk =   0.2222222
        k(    4) = (   0.0727669  -0.3781080   0.0993179), wk =   0.2222222
        k(    5) = (   0.0727669  -0.2100600   0.0993179), wk =   0.2222222
        k(    6) = (   0.0727669  -0.0420120   0.0993179), wk =   0.1111111
        k(    7) = (   0.2183008   0.3781080   0.0993179), wk =   0.1111111
        k(    8) = (   0.2183008   0.5461560   0.0993179), wk =   0.2222222
        k(    9) = (   0.2183008  -0.2940840   0.0993179), wk =   0.2222222
        k(   10) = (   0.2183008  -0.1260360   0.0993179), wk =   0.1111111
        k(   11) = (   0.3638346   0.6301800   0.0993179), wk =   0.1111111
        k(   12) = (   0.3638346  -0.2100600   0.0993179), wk =   0.1111111

     Check: negative core charge=   -0.000047

     Initial potential from superposition of free atoms

     starting charge      15.9999, renormalised to      16.0000
     Starting wfcs are   16 randomized atomic wfcs

     Self-consistent Calculation

     iteration #  1     ecut=    40.00 Ry     beta= 0.70
     Davidson diagonalization with overlap
     c_bands:  4 eigenvalues not converged
     c_bands:  3 eigenvalues not converged
     c_bands:  1 eigenvalues not converged
     c_bands:  2 eigenvalues not converged
     c_bands:  4 eigenvalues not converged
     c_bands:  4 eigenvalues not converged
     c_bands:  2 eigenvalues not converged
     c_bands:  2 eigenvalues not converged
     c_bands:  2 eigenvalues not converged
     c_bands:  1 eigenvalues not converged
     c_bands:  2 eigenvalues not converged
     ethr =  1.00E-06,  avg # of iterations = 19.9

[...]

     total energy              =     -47.84132696 Ry
     estimated scf accuracy    <       0.00000006 Ry

     iteration #  9     ecut=    40.00 Ry     beta= 0.70
     Davidson diagonalization with overlap
     ethr =  3.56E-10,  avg # of iterations =  5.3

     End of self-consistent calculation

[...]

          k = 0.3638-0.2101 0.0993 (   778 PWs)   bands (ev):

    -5.9583  -5.1375  -2.0431  -1.4108   3.6270   3.8925   5.3691   8.0509
    12.1063  13.9997  17.5031  18.7214

     the Fermi energy is    10.0991 ev

!    total energy              =     -47.84132702 Ry
     estimated scf accuracy    <          2.2E-09 Ry
     smearing contrib. (-TS)   =      -0.00000000 Ry
     internal energy E=F+TS    =     -47.84132702 Ry

     The total energy is F=E-TS. E is the sum of the following terms:
     one-electron contribution =       4.49464144 Ry
     hartree contribution      =       7.73980819 Ry
     xc contribution           =     -16.78109056 Ry
     ewald contribution        =     -43.29468610 Ry

     convergence has been achieved in   9 iterations

     Forces acting on atoms (cartesian axes, Ry/au):

     atom    1 type  1   force =    -0.00000000   -0.00000000   -0.00000000
     atom    2 type  1   force =     0.00000000    0.00000000    0.00000000
     atom    3 type  1   force =     0.00000000    0.00000000    0.00000000
     atom    4 type  1   force =    -0.00000000    0.00000000   -0.00000000

     Total force =     0.000000     Total SCF correction =     0.000000

     Computing stress (Cartesian axis) and pressure

          total   stress  (Ry/bohr**3)                   (kbar)     P=      173.00
   0.00090060  -0.00000000   0.00000000          132.48       -0.00        0.00
  -0.00000000   0.00090060   0.00000000           -0.00      132.48        0.00
   0.00000000   0.00000000   0.00172683            0.00        0.00      254.03

     Writing all to output data dir ../results/graphene-base/graphene-base.save/ :
     XML data file, charge density, pseudopotentials, collected wavefunctions

     General routines

     Parallel routines

   This run was terminated on:  21:22:54   5Aug2024

   JOB DONE.