     Program PWSCF v.7.2 starts on  2Sep2024 at 15:52:46

     Reading input from graphene.in

     Current dimensions of program PWSCF are:
     Max number of different atomic species (ntypx) = 10
     Max number of k-points (npk) =  40000
     Max angular momentum in pseudopotentials (lmaxx) =  4

     File ../../results/server/graphene/graphene.update deleted, as requested

     File ../../results/server/graphene/graphene.bfgs deleted, as requested

     IMPORTANT: XC functional enforced from input :
     Exchange-correlation= LDA
                           (   1   1   0   0   0   0   0)
     Any further DFT definition will be discarded
     Please, verify this is what you really want

     Found identity + ( -0.5000  0.0000  0.0000) symmetry
     This is a supercell, fractional translations are disabled

     R & G space division:  proc/nbgrp/npool/nimage =      24
     Subspace diagonalization in iterative solution of the eigenvalue problem:
     a serial algorithm will be used

     Using Slab Decomposition

     bravais-lattice index     =            4
     lattice parameter (alat)  =       8.0000  a.u.
     unit-cell volume          =     886.8115 (a.u.)^3
     number of atoms/cell      =           24
     number of atomic types    =            1
     number of electrons       =        96.00
     number of Kohn-Sham states=           58
     kinetic-energy cutoff     =      40.0000  Ry
     charge density cutoff     =     400.0000  Ry
     scf convergence threshold =      1.0E-06
     mixing beta               =       0.0500
     number of iterations used =            8  TF        mixing
     energy convergence thresh.=      1.0E-04
     force convergence thresh. =      1.0E-03
     press convergence thresh. =      5.0E-01
     Exchange-correlation= LDA
                           (   1   1   0   0   0   0   0)
     nstep                     =           50

     celldm(1)=   8.000004  celldm(2)=   0.000000  celldm(3)=   2.000000
     celldm(4)=   0.000000  celldm(5)=   0.000000  celldm(6)=   0.000000

     crystal axes: (cart. coord. in units of alat)
               a(1) = (   1.000000   0.000000   0.000000 )
               a(2) = (  -0.500000   0.866025   0.000000 )
               a(3) = (   0.000000   0.000000   2.000000 )

     reciprocal axes: (cart. coord. in units 2 pi/alat)
               b(1) = (  1.000000  0.577350  0.000000 )
               b(2) = (  0.000000  1.154701  0.000000 )
               b(3) = (  0.000000  0.000000  0.500000 )

     PseudoPot. # 1 for C  read from file:
     ../../potentials/C.pz-n-rrkjus_psl.0.1.UPF
     MD5 check sum: a3cecbabebb5b3a1aff122f23eb09bb0
     Pseudo is Ultrasoft + core correction, Zval =  4.0
     Generated using "atomic" code by A. Dal Corso  v.5.0.2 svn rev. 9415
     Using radial grid of 1073 points,  4 beta functions with:
                l(1) =   0
                l(2) =   0
                l(3) =   1
                l(4) =   1
     Q(r) pseudized with 0 coefficients

     atomic species   valence    mass     pseudopotential
        C              4.00    12.01100     C ( 1.00)

     12 Sym. Ops. (no inversion) found

   Cartesian axes

     site n.     atom                  positions (alat units)
         1           C   tau(   1) = (   0.0000000   0.0000000   0.3333320  )
         2           C   tau(   2) = (   0.0000000   0.0000000   1.0000000  )
         3           C   tau(   3) = (   0.0000000   0.0000000   1.6666660  )
         4           C   tau(   4) = (  -0.0000005   0.2886748   0.3333320  )
         5           C   tau(   5) = (   0.2500000   0.1443370   1.0000000  )
         6           C   tau(   6) = (  -0.0000005   0.2886748   1.6666660  )
         7           C   tau(   7) = (   0.5000000   0.0000000   0.3333320  )
         8           C   tau(   8) = (   0.5000000   0.0000000   1.0000000  )
         9           C   tau(   9) = (   0.5000000   0.0000000   1.6666660  )
        10           C   tau(  10) = (   0.4999995   0.2886748   0.3333320  )
        11           C   tau(  11) = (   0.7500000   0.1443370   1.0000000  )
        12           C   tau(  12) = (   0.4999995   0.2886748   1.6666660  )
        13           C   tau(  13) = (  -0.2500000   0.4330127   0.3333320  )
        14           C   tau(  14) = (  -0.2500000   0.4330127   1.0000000  )
        15           C   tau(  15) = (  -0.2500000   0.4330127   1.6666660  )
        16           C   tau(  16) = (  -0.2500005   0.7216875   0.3333320  )
        17           C   tau(  17) = (   0.0000000   0.5773497   1.0000000  )
        18           C   tau(  18) = (  -0.2500005   0.7216875   1.6666660  )
        19           C   tau(  19) = (   0.2500000   0.4330127   0.3333320  )
        20           C   tau(  20) = (   0.2500000   0.4330127   1.0000000  )
        21           C   tau(  21) = (   0.2500000   0.4330127   1.6666660  )
        22           C   tau(  22) = (   0.2499995   0.7216875   0.3333320  )
        23           C   tau(  23) = (   0.5000000   0.5773497   1.0000000  )
        24           C   tau(  24) = (   0.2499995   0.7216875   1.6666660  )

     number of k points=    12  Gaussian smearing, width (Ry)=  0.0100
                       cart. coord. in units 2pi/alat
        k(    1) = (   0.0833333   0.1443376   0.1250000), wk =   0.1111111
        k(    2) = (   0.0833333   0.3367877   0.1250000), wk =   0.2222222
        k(    3) = (   0.0833333   0.5292377   0.1250000), wk =   0.2222222
        k(    4) = (   0.0833333  -0.4330127   0.1250000), wk =   0.2222222
        k(    5) = (   0.0833333  -0.2405626   0.1250000), wk =   0.2222222
        k(    6) = (   0.0833333  -0.0481125   0.1250000), wk =   0.1111111
        k(    7) = (   0.2500000   0.4330127   0.1250000), wk =   0.1111111
        k(    8) = (   0.2500000   0.6254628   0.1250000), wk =   0.2222222
        k(    9) = (   0.2500000  -0.3367877   0.1250000), wk =   0.2222222
        k(   10) = (   0.2500000  -0.1443376   0.1250000), wk =   0.1111111
        k(   11) = (   0.4166667   0.7216878   0.1250000), wk =   0.1111111
        k(   12) = (   0.4166667  -0.2405626   0.1250000), wk =   0.1111111

     Check: negative core charge=   -0.000002

     Initial potential from superposition of free atoms

     starting charge      95.9992, renormalised to      96.0000
     Starting wfcs are   96 randomized atomic wfcs

     Self-consistent Calculation

     iteration #  1     ecut=    40.00 Ry     beta= 0.05
     Davidson diagonalization with overlap
     ethr =  1.00E-02,  avg # of iterations =  5.7

     total energy              =    -286.82241986 Ry
     estimated scf accuracy    <       5.61261691 Ry

[...]

     iteration #  7     ecut=    40.00 Ry     beta= 0.05
     Davidson diagonalization with overlap
     c_bands:  1 eigenvalues not converged
     ethr =  6.55E-06,  avg # of iterations = 10.8

[...]

     End of self-consistent calculation

          k = 0.0833 0.1443 0.1250 (  3768 PWs)   bands (ev):

   -10.3025  -9.9402  -9.5203  -4.7653  -4.7653  -4.5128  -4.5128  -4.2378
    -4.2378  -3.3678  -3.2217  -3.0946  -2.3300  -2.1141  -1.9142  -1.0853
    -1.0853  -0.8729  -0.8729  -0.6497  -0.6497   0.5301   2.0669   3.9078
     4.8718   4.9485   5.0261   5.4597   5.4597   5.5241   5.5241   5.5892
     5.5893   7.6884   7.6884   8.8618   8.8618   8.9485   9.8143  10.0312
    10.0762  10.1027  10.1541  10.1541  10.2002  10.2411  10.2654  10.7305
    13.9093  14.8045  14.8045  14.9826  15.9208  15.9208  16.0853  17.2496
    17.2496  17.6752

[...]

     the Fermi energy is    13.1108 ev

!    total energy              =    -283.94820001 Ry
     estimated scf accuracy    <       0.00000003 Ry
     smearing contrib. (-TS)   =      -0.00012945 Ry
     internal energy E=F+TS    =    -283.94807056 Ry

     The total energy is F=E-TS. E is the sum of the following terms:
     one-electron contribution =      -4.47764558 Ry
     hartree contribution      =      72.21749930 Ry
     xc contribution           =    -108.70155270 Ry
     ewald contribution        =    -242.98637158 Ry

     convergence has been achieved in  21 iterations

     Forces acting on atoms (cartesian axes, Ry/au):

     atom    1 type  1   force =     0.00000000   -0.00000000    0.00721479
     atom    2 type  1   force =     0.00000000    0.00000000    0.00000000
     atom    3 type  1   force =     0.00000000    0.00000000   -0.00721479
     atom    4 type  1   force =     0.00000000   -0.00000234    0.00544911
     atom    5 type  1   force =    -0.00000141   -0.00000081    0.00000000
     atom    6 type  1   force =     0.00000000   -0.00000234   -0.00544911
     atom    7 type  1   force =     0.00000000   -0.00000048    0.00721464
     atom    8 type  1   force =     0.00000000   -0.00000043    0.00000000
     atom    9 type  1   force =     0.00000000   -0.00000048   -0.00721464
     atom   10 type  1   force =    -0.00000000   -0.00000000    0.00544837
     atom   11 type  1   force =     0.00000141   -0.00000081    0.00000000
     atom   12 type  1   force =     0.00000000    0.00000000   -0.00544837
     atom   13 type  1   force =     0.00000042    0.00000024    0.00721464
     atom   14 type  1   force =     0.00000037    0.00000022    0.00000000
     atom   15 type  1   force =     0.00000042    0.00000024   -0.00721464
     atom   16 type  1   force =    -0.00000203    0.00000117    0.00544911
     atom   17 type  1   force =     0.00000000   -0.00000000    0.00000000
     atom   18 type  1   force =    -0.00000203    0.00000117   -0.00544911
     atom   19 type  1   force =    -0.00000042    0.00000024    0.00721464
     atom   20 type  1   force =    -0.00000037    0.00000022    0.00000000
     atom   21 type  1   force =    -0.00000042    0.00000024   -0.00721464
     atom   22 type  1   force =     0.00000203    0.00000117    0.00544911
     atom   23 type  1   force =    -0.00000000    0.00000162    0.00000000
     atom   24 type  1   force =     0.00000203    0.00000117   -0.00544911
     The non-local contrib.  to forces
     atom    1 type  1   force =    -0.00000000   -0.00000000    0.01167080
     atom    2 type  1   force =     0.00000000    0.00000000    0.00000000
     atom    3 type  1   force =    -0.00000000   -0.00000000   -0.01167080
     atom    4 type  1   force =     0.00000000   -0.00000158    0.00798018
     atom    5 type  1   force =    -0.00000109   -0.00000063   -0.00000000
     atom    6 type  1   force =     0.00000000   -0.00000158   -0.00798018
     atom    7 type  1   force =     0.00000000   -0.00000055    0.01167075
     atom    8 type  1   force =    -0.00000000    0.00000035    0.00000000
     atom    9 type  1   force =    -0.00000000   -0.00000055   -0.01167075
     atom   10 type  1   force =     0.00000000   -0.00000000    0.00798049
     atom   11 type  1   force =     0.00000109   -0.00000063    0.00000000
     atom   12 type  1   force =     0.00000000    0.00000000   -0.00798049
     atom   13 type  1   force =     0.00000048    0.00000027    0.01167075
     atom   14 type  1   force =    -0.00000030   -0.00000018    0.00000000
     atom   15 type  1   force =     0.00000048    0.00000027   -0.01167075
[...]
                       cart. coord. in units 2pi/alat
        k(    1) = (   0.0724999   0.1255735   0.1140004), wk =   0.1111111
        k(    2) = (   0.0724999   0.2930048   0.1140004), wk =   0.2222222
        k(    3) = (   0.0724999   0.4604361   0.1140004), wk =   0.2222222
        k(    4) = (   0.0724999  -0.3767205   0.1140004), wk =   0.2222222
        k(    5) = (   0.0724999  -0.2092891   0.1140004), wk =   0.2222222
        k(    6) = (   0.0724999  -0.0418578   0.1140004), wk =   0.1111111
        k(    7) = (   0.2174997   0.3767205   0.1140004), wk =   0.1111111
        k(    8) = (   0.2174997   0.5441518   0.1140004), wk =   0.2222222
        k(    9) = (   0.2174997  -0.2930048   0.1140004), wk =   0.2222222
        k(   10) = (   0.2174997  -0.1255735   0.1140004), wk =   0.1111111
        k(   11) = (   0.3624994   0.6278674   0.1140004), wk =   0.1111111
        k(   12) = (   0.3624994  -0.2092891   0.1140004), wk =   0.1111111

     Check: negative core charge=   -0.000002

     Initial potential from superposition of free atoms

     starting charge      95.9992, renormalised to      96.0000
     Starting wfcs are   96 randomized atomic wfcs

     Self-consistent Calculation

[...]

     iteration #  7     ecut=    40.00 Ry     beta= 0.05
     Davidson diagonalization with overlap
     c_bands:  1 eigenvalues not converged
     ethr =  6.52E-06,  avg # of iterations =  9.7

[...]

     total energy              =    -287.17900589 Ry
     estimated scf accuracy    <       0.00000002 Ry

     iteration # 26     ecut=    40.00 Ry     beta= 0.05
     Davidson diagonalization with overlap
     ethr =  1.96E-11,  avg # of iterations =  2.0

     End of self-consistent calculation

[...]

          k = 0.3625-0.2093 0.1140 (  5499 PWs)   bands (ev):

   -10.8167 -10.5850 -10.3318  -9.8173  -9.5983  -9.3603  -7.3966  -7.3966
    -7.2095  -7.2095  -7.0089  -7.0089  -2.8981  -2.8981  -2.7838  -2.7838
    -2.6655  -2.6655  -0.8600  -0.8600  -0.7776  -0.7776  -0.6881  -0.6881
    -0.6063  -0.5028  -0.3942   0.1628   1.2952   1.3687   1.6292   1.7049
     1.7812   2.4540   2.4694   2.5166   2.5663   2.6705   3.3302   3.3724
     3.4170   3.7549   4.2024   4.2024   5.1264   5.1264   6.1801   6.1801
    10.2141  10.2141  10.7560  10.7561  11.3506  11.3507  13.6038  14.1744
    14.1839  14.8280

     the Fermi energy is     8.0003 ev

!    total energy              =    -287.17900645 Ry
     estimated scf accuracy    <          8.7E-09 Ry
     smearing contrib. (-TS)   =      -0.00012165 Ry
     internal energy E=F+TS    =    -287.17888480 Ry

     The total energy is F=E-TS. E is the sum of the following terms:
     one-electron contribution =     -33.44426331 Ry
     hartree contribution      =      68.97616364 Ry
     xc contribution           =    -100.02259442 Ry
     ewald contribution        =    -222.68819071 Ry

     convergence has been achieved in  26 iterations

     Forces acting on atoms (cartesian axes, Ry/au):

     atom    1 type  1   force =    -0.00000000   -0.00000000   -0.00004842
     atom    2 type  1   force =     0.00000000   -0.00000000   -0.00000000
     atom    3 type  1   force =    -0.00000000    0.00000000    0.00004842
     atom    4 type  1   force =    -0.00000000   -0.00000049   -0.00010627
     atom    5 type  1   force =    -0.00000006   -0.00000004   -0.00000000
     atom    6 type  1   force =    -0.00000000   -0.00000049    0.00010627
     atom    7 type  1   force =    -0.00000000    0.00000045   -0.00004863
     atom    8 type  1   force =    -0.00000000    0.00000011    0.00000000
     atom    9 type  1   force =    -0.00000000    0.00000045    0.00004863
     atom   10 type  1   force =    -0.00000000    0.00000000   -0.00010640
     atom   11 type  1   force =     0.00000006   -0.00000004   -0.00000000
     atom   12 type  1   force =    -0.00000000   -0.00000000    0.00010640
     atom   13 type  1   force =    -0.00000039   -0.00000023   -0.00004863
     atom   14 type  1   force =    -0.00000009   -0.00000005    0.00000000
     atom   15 type  1   force =    -0.00000039   -0.00000023    0.00004863
     atom   16 type  1   force =    -0.00000042    0.00000024   -0.00010627
     atom   17 type  1   force =    -0.00000000    0.00000000    0.00000000
     atom   18 type  1   force =    -0.00000042    0.00000024    0.00010627
     atom   19 type  1   force =     0.00000039   -0.00000023   -0.00004863
     atom   20 type  1   force =     0.00000009   -0.00000005   -0.00000000
     atom   21 type  1   force =     0.00000039   -0.00000023    0.00004863
     atom   22 type  1   force =     0.00000042    0.00000024   -0.00010627
     atom   23 type  1   force =    -0.00000000    0.00000007    0.00000000
     atom   24 type  1   force =     0.00000042    0.00000024    0.00010627
     The non-local contrib.  to forces
     atom    1 type  1   force =    -0.00000000   -0.00000000    0.00186404
     atom    2 type  1   force =     0.00000000    0.00000000    0.00000000
     atom    3 type  1   force =     0.00000000    0.00000000   -0.00186404
     atom    4 type  1   force =    -0.00000000   -0.00000017    0.00129764
     atom    5 type  1   force =    -0.00000024   -0.00000014   -0.00000000
     atom    6 type  1   force =    -0.00000000   -0.00000017   -0.00129764
     atom    7 type  1   force =    -0.00000000    0.00000012    0.00186431
     atom    8 type  1   force =    -0.00000000   -0.00000002   -0.00000000
     atom    9 type  1   force =    -0.00000000    0.00000012   -0.00186431
     atom   10 type  1   force =    -0.00000000   -0.00000000    0.00129750
     atom   11 type  1   force =     0.00000024   -0.00000014   -0.00000000
     atom   12 type  1   force =     0.00000000    0.00000000   -0.00129750
     atom   13 type  1   force =    -0.00000011   -0.00000006    0.00186431
     atom   14 type  1   force =     0.00000002    0.00000001    0.00000000
     atom   15 type  1   force =    -0.00000011   -0.00000006   -0.00186431
     atom   16 type  1   force =    -0.00000015    0.00000009    0.00129764
     atom   17 type  1   force =     0.00000000    0.00000000    0.00000000
     atom   18 type  1   force =    -0.00000015    0.00000009   -0.00129764
     atom   19 type  1   force =     0.00000011   -0.00000006    0.00186431
     atom   20 type  1   force =    -0.00000002    0.00000001    0.00000000
     atom   21 type  1   force =     0.00000011   -0.00000006   -0.00186431
     atom   22 type  1   force =     0.00000015    0.00000009    0.00129764
     atom   23 type  1   force =    -0.00000000    0.00000027    0.00000000
     atom   24 type  1   force =     0.00000015    0.00000009   -0.00129764
     The ionic contribution  to forces
     atom    1 type  1   force =    -0.00001753   -0.00001014   -1.01795301
     atom    2 type  1   force =    -0.00000003   -0.00002025   -0.00004404
     atom    3 type  1   force =    -0.00001753   -0.00001014    1.01799706
     atom    4 type  1   force =     0.00001756    0.00001012   -1.02774738
     atom    5 type  1   force =    -0.00000003    0.00002028   -0.00004371
     atom    6 type  1   force =     0.00001756    0.00001012    1.02779109
     atom    7 type  1   force =    -0.00001753   -0.00001014   -1.01795306
     atom    8 type  1   force =    -0.00000003   -0.00002025   -0.00004404
     atom    9 type  1   force =    -0.00001753   -0.00001014    1.01799710
     atom   10 type  1   force =     0.00001756    0.00001012   -1.02774725
     atom   11 type  1   force =    -0.00000003    0.00002028   -0.00004371
     atom   12 type  1   force =     0.00001756    0.00001012    1.02779096
     atom   13 type  1   force =    -0.00001753   -0.00001014   -1.01795306
     atom   14 type  1   force =    -0.00000002   -0.00002025   -0.00004404
     atom   15 type  1   force =    -0.00001753   -0.00001014    1.01799710
     atom   16 type  1   force =     0.00001756    0.00001012   -1.02774738
     atom   17 type  1   force =    -0.00000003    0.00002028   -0.00004371
     atom   18 type  1   force =     0.00001756    0.00001012    1.02779109
     atom   19 type  1   force =    -0.00001753   -0.00001014   -1.01795306
     atom   20 type  1   force =    -0.00000003   -0.00002025   -0.00004404
     atom   21 type  1   force =    -0.00001753   -0.00001014    1.01799710
     atom   22 type  1   force =     0.00001756    0.00001012   -1.02774738
     atom   23 type  1   force =    -0.00000003    0.00002029   -0.00004371
     atom   24 type  1   force =     0.00001756    0.00001012    1.02779109
     The local contribution  to forces
     atom    1 type  1   force =     0.00000000   -0.00000000    1.01627835
     atom    2 type  1   force =    -0.00000000    0.00000000   -0.00000000
     atom    3 type  1   force =    -0.00000000   -0.00000000   -1.01604909
     atom    4 type  1   force =     0.00001307    0.00000736    1.02648020
     atom    5 type  1   force =     0.00000016    0.00001525   -0.00000000
     atom    6 type  1   force =     0.00001307    0.00000736   -1.02625126
     atom    7 type  1   force =     0.00000000    0.00000058    1.01627773
     atom    8 type  1   force =     0.00000000    0.00000005   -0.00000000
     atom    9 type  1   force =     0.00000000    0.00000058   -1.01604847
     atom   10 type  1   force =     0.00001307    0.00000755    1.02647987
     atom   11 type  1   force =    -0.00000016    0.00001525   -0.00000000
     atom   12 type  1   force =     0.00001307    0.00000755   -1.02625093
     atom   13 type  1   force =    -0.00000050   -0.00000029    1.01627773
     atom   14 type  1   force =    -0.00000004   -0.00000003   -0.00000000
     atom   15 type  1   force =    -0.00000050   -0.00000029   -1.01604847
     atom   16 type  1   force =     0.00001291    0.00000764    1.02648020
     atom   17 type  1   force =     0.00000000    0.00001515   -0.00000000
     atom   18 type  1   force =     0.00001291    0.00000764   -1.02625126
     atom   19 type  1   force =     0.00000050   -0.00000029    1.01627773
     atom   20 type  1   force =     0.00000004   -0.00000003   -0.00000000
     atom   21 type  1   force =     0.00000050   -0.00000029   -1.01604847
     atom   22 type  1   force =     0.00001322    0.00000764    1.02648020
     atom   23 type  1   force =    -0.00000000    0.00001496   -0.00000000
     atom   24 type  1   force =     0.00001322    0.00000764   -1.02625126
     The core correction contribution to forces
     atom    1 type  1   force =     0.00000000    0.00000000   -0.00008480
     atom    2 type  1   force =    -0.00000000    0.00000000   -0.00000000
     atom    3 type  1   force =     0.00000000    0.00000000    0.00008637
     atom    4 type  1   force =    -0.00000038   -0.00000021    0.00001507
     atom    5 type  1   force =     0.00000001   -0.00000043   -0.00000000
     atom    6 type  1   force =    -0.00000038   -0.00000021   -0.00001357
     atom    7 type  1   force =     0.00000000   -0.00000000   -0.00008481
     atom    8 type  1   force =    -0.00000000    0.00000000   -0.00000000
     atom    9 type  1   force =     0.00000000   -0.00000000    0.00008638
     atom   10 type  1   force =    -0.00000038   -0.00000022    0.00001507
     atom   11 type  1   force =    -0.00000001   -0.00000043   -0.00000000
     atom   12 type  1   force =    -0.00000038   -0.00000022   -0.00001357
     atom   13 type  1   force =     0.00000000    0.00000000   -0.00008481
     atom   14 type  1   force =    -0.00000000   -0.00000000   -0.00000000
     atom   15 type  1   force =     0.00000000    0.00000000    0.00008638
     atom   16 type  1   force =    -0.00000037   -0.00000022    0.00001507
     atom   17 type  1   force =    -0.00000000   -0.00000043   -0.00000000
     atom   18 type  1   force =    -0.00000037   -0.00000022   -0.00001357
     atom   19 type  1   force =    -0.00000000    0.00000000   -0.00008481
     atom   20 type  1   force =     0.00000000   -0.00000000   -0.00000000
     atom   21 type  1   force =    -0.00000000    0.00000000    0.00008638
     atom   22 type  1   force =    -0.00000038   -0.00000022    0.00001507
     atom   23 type  1   force =    -0.00000000   -0.00000044   -0.00000000
     atom   24 type  1   force =    -0.00000038   -0.00000022   -0.00001357
     The Hubbard contrib.    to forces
     atom    1 type  1   force =     0.00000000    0.00000000    0.00000000
     atom    2 type  1   force =     0.00000000    0.00000000    0.00000000
     atom    3 type  1   force =     0.00000000    0.00000000    0.00000000
     atom    4 type  1   force =     0.00000000    0.00000000    0.00000000
     atom    5 type  1   force =     0.00000000    0.00000000    0.00000000
     atom    6 type  1   force =     0.00000000    0.00000000    0.00000000
     atom    7 type  1   force =     0.00000000    0.00000000    0.00000000
     atom    8 type  1   force =     0.00000000    0.00000000    0.00000000
     atom    9 type  1   force =     0.00000000    0.00000000    0.00000000
     atom   10 type  1   force =     0.00000000    0.00000000    0.00000000
     atom   11 type  1   force =     0.00000000    0.00000000    0.00000000
     atom   12 type  1   force =     0.00000000    0.00000000    0.00000000
     atom   13 type  1   force =     0.00000000    0.00000000    0.00000000
     atom   14 type  1   force =     0.00000000    0.00000000    0.00000000
     atom   15 type  1   force =     0.00000000    0.00000000    0.00000000
     atom   16 type  1   force =     0.00000000    0.00000000    0.00000000
     atom   17 type  1   force =     0.00000000    0.00000000    0.00000000
     atom   18 type  1   force =     0.00000000    0.00000000    0.00000000
     atom   19 type  1   force =     0.00000000    0.00000000    0.00000000
     atom   20 type  1   force =     0.00000000    0.00000000    0.00000000
     atom   21 type  1   force =     0.00000000    0.00000000    0.00000000
     atom   22 type  1   force =     0.00000000    0.00000000    0.00000000
     atom   23 type  1   force =     0.00000000    0.00000000    0.00000000
     atom   24 type  1   force =     0.00000000    0.00000000    0.00000000
     The SCF correction term to forces
     atom    1 type  1   force =     0.00000000    0.00000000   -0.00002076
     atom    2 type  1   force =     0.00000000    0.00000000    0.00001134
     atom    3 type  1   force =     0.00000000    0.00000000    0.00001037
     atom    4 type  1   force =     0.00000000    0.00000000   -0.00001994
     atom    5 type  1   force =     0.00000000    0.00000000    0.00001134
     atom    6 type  1   force =     0.00000000    0.00000000    0.00000953
     atom    7 type  1   force =     0.00000000    0.00000000   -0.00002055
     atom    8 type  1   force =     0.00000000    0.00000000    0.00001134
     atom    9 type  1   force =     0.00000000    0.00000000    0.00001017
     atom   10 type  1   force =     0.00000000    0.00000000   -0.00001972
     atom   11 type  1   force =     0.00000000    0.00000000    0.00001134
     atom   12 type  1   force =     0.00000000    0.00000000    0.00000931
     atom   13 type  1   force =     0.00000000    0.00000000   -0.00002055
     atom   14 type  1   force =     0.00000000    0.00000000    0.00001134
     atom   15 type  1   force =     0.00000000    0.00000000    0.00001017
     atom   16 type  1   force =     0.00000000    0.00000000   -0.00001994
     atom   17 type  1   force =     0.00000000    0.00000000    0.00001134
     atom   18 type  1   force =     0.00000000    0.00000000    0.00000953
     atom   19 type  1   force =     0.00000000    0.00000000   -0.00002055
     atom   20 type  1   force =     0.00000000    0.00000000    0.00001134
     atom   21 type  1   force =     0.00000000    0.00000000    0.00001017
     atom   22 type  1   force =     0.00000000    0.00000000   -0.00001994
     atom   23 type  1   force =     0.00000000    0.00000000    0.00001134
     atom   24 type  1   force =     0.00000000    0.00000000    0.00000953

     Total force =     0.000331     Total SCF correction =     0.000071
     SCF correction compared to forces is large: reduce conv_thr to get better values

     Computing stress (Cartesian axis) and pressure

          total   stress  (Ry/bohr**3)                   (kbar)     P=       61.58
   0.00046190  -0.00000000  -0.00000000           67.95       -0.00       -0.00
  -0.00000000   0.00046190   0.00000000           -0.00       67.95        0.00
   0.00000000   0.00000000   0.00033198            0.00        0.00       48.84

     Writing all to output data dir ../../results/server/graphene/graphene.save/

     General routines

     Parallel routines

   This run was terminated on:  15:55:49   2Sep2024

   JOB DONE.