     Program PWSCF v.7.2 starts on  3Sep2024 at 14:30:49

     Reading input from graphene.in

     Current dimensions of program PWSCF are:
     Max number of different atomic species (ntypx) = 10
     Max number of k-points (npk) =  40000
     Max angular momentum in pseudopotentials (lmaxx) =  4

     IMPORTANT: XC functional enforced from input :
     Exchange-correlation= LDA
                           (   1   1   0   0   0   0   0)
     Any further DFT definition will be discarded
     Please, verify this is what you really want

     Found identity + ( -0.5000  0.0000  0.0000) symmetry
     This is a supercell, fractional translations are disabled

     R & G space division:  proc/nbgrp/npool/nimage =      24
     Subspace diagonalization in iterative solution of the eigenvalue problem:
     a serial algorithm will be used

     Using Slab Decomposition

     bravais-lattice index     =            4
     lattice parameter (alat)  =       8.0000  a.u.
     unit-cell volume          =     886.8115 (a.u.)^3
     number of atoms/cell      =           24
     number of atomic types    =            1
     number of electrons       =        96.00
     number of Kohn-Sham states=           58
     kinetic-energy cutoff     =      40.0000  Ry
     charge density cutoff     =     400.0000  Ry
     scf convergence threshold =      1.0E-06
     mixing beta               =       0.0500
     number of iterations used =            8  TF        mixing
     energy convergence thresh.=      1.0E-04
     force convergence thresh. =      1.0E-03
     press convergence thresh. =      5.0E-01
     Exchange-correlation= LDA
                           (   1   1   0   0   0   0   0)
     nstep                     =           50

     celldm(1)=   8.000004  celldm(2)=   0.000000  celldm(3)=   2.000000
     celldm(4)=   0.000000  celldm(5)=   0.000000  celldm(6)=   0.000000

     crystal axes: (cart. coord. in units of alat)
               a(1) = (   1.000000   0.000000   0.000000 )
               a(2) = (  -0.500000   0.866025   0.000000 )
               a(3) = (   0.000000   0.000000   2.000000 )

     reciprocal axes: (cart. coord. in units 2 pi/alat)
               b(1) = (  1.000000  0.577350  0.000000 )
               b(2) = (  0.000000  1.154701  0.000000 )
               b(3) = (  0.000000  0.000000  0.500000 )

     PseudoPot. # 1 for C  read from file:
     ../../potentials/C.pz-n-rrkjus_psl.0.1.UPF
     MD5 check sum: a3cecbabebb5b3a1aff122f23eb09bb0
     Pseudo is Ultrasoft + core correction, Zval =  4.0
     Generated using "atomic" code by A. Dal Corso  v.5.0.2 svn rev. 9415
     Using radial grid of 1073 points,  4 beta functions with:
                l(1) =   0
                l(2) =   0
                l(3) =   1
                l(4) =   1
     Q(r) pseudized with 0 coefficients

     atomic species   valence    mass     pseudopotential
        C              4.00    12.01100     C ( 1.00)

     12 Sym. Ops. (no inversion) found

   Cartesian axes

     site n.     atom                  positions (alat units)
         1           C   tau(   1) = (   0.0000000   0.0000000   0.3333320  )
         2           C   tau(   2) = (   0.0000000   0.0000000   1.0000000  )
         3           C   tau(   3) = (   0.0000000   0.0000000   1.6666660  )
         4           C   tau(   4) = (  -0.0000005   0.2886748   0.3333320  )
         5           C   tau(   5) = (   0.2500000   0.1443370   1.0000000  )
         6           C   tau(   6) = (  -0.0000005   0.2886748   1.6666660  )
         7           C   tau(   7) = (   0.5000000   0.0000000   0.3333320  )
         8           C   tau(   8) = (   0.5000000   0.0000000   1.0000000  )
         9           C   tau(   9) = (   0.5000000   0.0000000   1.6666660  )
        10           C   tau(  10) = (   0.4999995   0.2886748   0.3333320  )
        11           C   tau(  11) = (   0.7500000   0.1443370   1.0000000  )
        12           C   tau(  12) = (   0.4999995   0.2886748   1.6666660  )
        13           C   tau(  13) = (  -0.2500000   0.4330127   0.3333320  )
        14           C   tau(  14) = (  -0.2500000   0.4330127   1.0000000  )
        15           C   tau(  15) = (  -0.2500000   0.4330127   1.6666660  )
        16           C   tau(  16) = (  -0.2500005   0.7216875   0.3333320  )
        17           C   tau(  17) = (   0.0000000   0.5773497   1.0000000  )
        18           C   tau(  18) = (  -0.2500005   0.7216875   1.6666660  )
        19           C   tau(  19) = (   0.2500000   0.4330127   0.3333320  )
        20           C   tau(  20) = (   0.2500000   0.4330127   1.0000000  )
        21           C   tau(  21) = (   0.2500000   0.4330127   1.6666660  )
        22           C   tau(  22) = (   0.2499995   0.7216875   0.3333320  )
        23           C   tau(  23) = (   0.5000000   0.5773497   1.0000000  )
        24           C   tau(  24) = (   0.2499995   0.7216875   1.6666660  )

     number of k points=    12  Gaussian smearing, width (Ry)=  0.0100
                       cart. coord. in units 2pi/alat
        k(    1) = (   0.0833333   0.1443376   0.1250000), wk =   0.1111111
        k(    2) = (   0.0833333   0.3367877   0.1250000), wk =   0.2222222
        k(    3) = (   0.0833333   0.5292377   0.1250000), wk =   0.2222222
        k(    4) = (   0.0833333  -0.4330127   0.1250000), wk =   0.2222222
        k(    5) = (   0.0833333  -0.2405626   0.1250000), wk =   0.2222222
        k(    6) = (   0.0833333  -0.0481125   0.1250000), wk =   0.1111111
        k(    7) = (   0.2500000   0.4330127   0.1250000), wk =   0.1111111
        k(    8) = (   0.2500000   0.6254628   0.1250000), wk =   0.2222222
        k(    9) = (   0.2500000  -0.3367877   0.1250000), wk =   0.2222222
        k(   10) = (   0.2500000  -0.1443376   0.1250000), wk =   0.1111111
        k(   11) = (   0.4166667   0.7216878   0.1250000), wk =   0.1111111
        k(   12) = (   0.4166667  -0.2405626   0.1250000), wk =   0.1111111

     Check: negative core charge=   -0.000002

     Initial potential from superposition of free atoms

     starting charge      95.9992, renormalised to      96.0000
     Starting wfcs are   96 randomized atomic wfcs

     Self-consistent Calculation

     iteration #  1     ecut=    40.00 Ry     beta= 0.05
     Davidson diagonalization with overlap
     ethr =  1.00E-02,  avg # of iterations =  5.7

     total energy              =    -286.82241986 Ry
     estimated scf accuracy    <       5.61261691 Ry

[...]

     iteration #  7     ecut=    40.00 Ry     beta= 0.05
     Davidson diagonalization with overlap
     c_bands:  1 eigenvalues not converged
     ethr =  6.55E-06,  avg # of iterations = 10.8

[...]

     End of self-consistent calculation

          k = 0.0833 0.1443 0.1250 (  3768 PWs)   bands (ev):

   -10.3025  -9.9402  -9.5203  -4.7653  -4.7653  -4.5128  -4.5128  -4.2378
    -4.2378  -3.3678  -3.2217  -3.0946  -2.3300  -2.1141  -1.9142  -1.0853
    -1.0853  -0.8729  -0.8729  -0.6497  -0.6497   0.5301   2.0669   3.9078
     4.8718   4.9485   5.0261   5.4597   5.4597   5.5241   5.5241   5.5892
     5.5893   7.6884   7.6884   8.8618   8.8618   8.9485   9.8143  10.0312
    10.0762  10.1027  10.1541  10.1541  10.2002  10.2411  10.2654  10.7305
    13.9093  14.8045  14.8045  14.9826  15.9208  15.9208  16.0853  17.2496
    17.2496  17.6752

[...]

     the Fermi energy is    13.1108 ev

!    total energy              =    -283.94820001 Ry
     estimated scf accuracy    <       0.00000003 Ry
     smearing contrib. (-TS)   =      -0.00012945 Ry
     internal energy E=F+TS    =    -283.94807056 Ry

     The total energy is F=E-TS. E is the sum of the following terms:
     one-electron contribution =      -4.47764558 Ry
     hartree contribution      =      72.21749930 Ry
     xc contribution           =    -108.70155270 Ry
     ewald contribution        =    -242.98637158 Ry

     convergence has been achieved in  21 iterations

     Forces acting on atoms (cartesian axes, Ry/au):

     atom    1 type  1   force =     0.00000000   -0.00000000    0.00721479
     atom    2 type  1   force =     0.00000000    0.00000000    0.00000000
     atom    3 type  1   force =     0.00000000    0.00000000   -0.00721479
     atom    4 type  1   force =     0.00000000   -0.00000234    0.00544911
     atom    5 type  1   force =    -0.00000141   -0.00000081    0.00000000
     atom    6 type  1   force =     0.00000000   -0.00000234   -0.00544911
     atom    7 type  1   force =     0.00000000   -0.00000048    0.00721464
     atom    8 type  1   force =     0.00000000   -0.00000043    0.00000000
     atom    9 type  1   force =     0.00000000   -0.00000048   -0.00721464
     atom   10 type  1   force =    -0.00000000   -0.00000000    0.00544837
     atom   11 type  1   force =     0.00000141   -0.00000081    0.00000000
     atom   12 type  1   force =     0.00000000    0.00000000   -0.00544837
     atom   13 type  1   force =     0.00000042    0.00000024    0.00721464
     atom   14 type  1   force =     0.00000037    0.00000022    0.00000000
     atom   15 type  1   force =     0.00000042    0.00000024   -0.00721464
     atom   16 type  1   force =    -0.00000203    0.00000117    0.00544911
     atom   17 type  1   force =     0.00000000   -0.00000000    0.00000000
     atom   18 type  1   force =    -0.00000203    0.00000117   -0.00544911
     atom   19 type  1   force =    -0.00000042    0.00000024    0.00721464
     atom   20 type  1   force =    -0.00000037    0.00000022    0.00000000
     atom   21 type  1   force =    -0.00000042    0.00000024   -0.00721464
     atom   22 type  1   force =     0.00000203    0.00000117    0.00544911
     atom   23 type  1   force =    -0.00000000    0.00000162    0.00000000
     atom   24 type  1   force =     0.00000203    0.00000117   -0.00544911
     The non-local contrib.  to forces
     atom    1 type  1   force =    -0.00000000   -0.00000000    0.01167080
     atom    2 type  1   force =     0.00000000    0.00000000    0.00000000
     atom    3 type  1   force =    -0.00000000   -0.00000000   -0.01167080
     atom    4 type  1   force =     0.00000000   -0.00000158    0.00798018
     atom    5 type  1   force =    -0.00000109   -0.00000063   -0.00000000
     atom    6 type  1   force =     0.00000000   -0.00000158   -0.00798018
     atom    7 type  1   force =     0.00000000   -0.00000055    0.01167075
     atom    8 type  1   force =    -0.00000000    0.00000035    0.00000000
     atom    9 type  1   force =    -0.00000000   -0.00000055   -0.01167075
     atom   10 type  1   force =     0.00000000   -0.00000000    0.00798049
     atom   11 type  1   force =     0.00000109   -0.00000063    0.00000000
     atom   12 type  1   force =     0.00000000    0.00000000   -0.00798049
     atom   13 type  1   force =     0.00000048    0.00000027    0.01167075
     atom   14 type  1   force =    -0.00000030   -0.00000018    0.00000000
     atom   15 type  1   force =     0.00000048    0.00000027   -0.01167075
     atom   16 type  1   force =    -0.00000137    0.00000079    0.00798018
     atom   17 type  1   force =     0.00000000    0.00000000    0.00000000
[...]
        k(    4) = (   0.0725002  -0.3767221   0.1139917), wk =   0.2222222
        k(    5) = (   0.0725002  -0.2092901   0.1139917), wk =   0.2222222
        k(    6) = (   0.0725002  -0.0418580   0.1139917), wk =   0.1111111
        k(    7) = (   0.2175006   0.3767221   0.1139917), wk =   0.1111111
        k(    8) = (   0.2175006   0.5441542   0.1139917), wk =   0.2222222
        k(    9) = (   0.2175006  -0.2930061   0.1139917), wk =   0.2222222
        k(   10) = (   0.2175006  -0.1255740   0.1139917), wk =   0.1111111
        k(   11) = (   0.3625011   0.6278702   0.1139917), wk =   0.1111111
        k(   12) = (   0.3625011  -0.2092901   0.1139917), wk =   0.1111111

     Check: negative core charge=   -0.000002

     Initial potential from superposition of free atoms

     starting charge      95.9992, renormalised to      96.0000
     Starting wfcs are   96 randomized atomic wfcs

     Self-consistent Calculation

     iteration #  1     ecut=    40.00 Ry     beta= 0.05
     Davidson diagonalization with overlap
     c_bands:  1 eigenvalues not converged
     c_bands:  2 eigenvalues not converged
     c_bands:  4 eigenvalues not converged
     c_bands:  4 eigenvalues not converged
     c_bands:  1 eigenvalues not converged
     c_bands:  1 eigenvalues not converged
     c_bands:  5 eigenvalues not converged
     c_bands:  2 eigenvalues not converged
     c_bands:  1 eigenvalues not converged
     c_bands:  4 eigenvalues not converged
     c_bands:  4 eigenvalues not converged
     ethr =  1.00E-06,  avg # of iterations = 20.8

[...]

     total energy              =    -287.17903756 Ry
     estimated scf accuracy    <       0.00000001 Ry

     iteration # 28     ecut=    40.00 Ry     beta= 0.05
     Davidson diagonalization with overlap
     ethr =  1.22E-11,  avg # of iterations =  2.0

     End of self-consistent calculation

[...]

          k = 0.3625-0.2093 0.1140 (  5499 PWs)   bands (ev):

   -10.8173 -10.5859 -10.3331  -9.8178  -9.5992  -9.3615  -7.3972  -7.3971
    -7.2104  -7.2103  -7.0101  -7.0100  -2.8988  -2.8987  -2.7847  -2.7847
    -2.6665  -2.6665  -0.8608  -0.8607  -0.7786  -0.7784  -0.6892  -0.6890
    -0.6070  -0.5037  -0.3952   0.1626   1.2942   1.3686   1.6285   1.7041
     1.7802   2.4530   2.4686   2.5157   2.5653   2.6686   3.3294   3.3715
     3.4161   3.7531   4.2021   4.2023   5.1254   5.1256   6.1786   6.1788
    10.2131  10.2134  10.7553  10.7555  11.3500  11.3501  13.6034  14.1732
    14.1833  14.8275

     the Fermi energy is     7.9995 ev

!    total energy              =    -287.17903802 Ry
     estimated scf accuracy    <          5.9E-09 Ry
     smearing contrib. (-TS)   =      -0.00012314 Ry
     internal energy E=F+TS    =    -287.17891487 Ry

     The total energy is F=E-TS. E is the sum of the following terms:
     one-electron contribution =     -33.43032743 Ry
     hartree contribution      =      68.96614781 Ry
     xc contribution           =    -100.02256830 Ry
     ewald contribution        =    -222.69216696 Ry

     convergence has been achieved in  28 iterations

     Forces acting on atoms (cartesian axes, Ry/au):

     atom    1 type  1   force =    -0.00000000   -0.00000000    0.00000770
     atom    2 type  1   force =     0.00000000    0.00000000    0.00000000
     atom    3 type  1   force =    -0.00000000   -0.00000000   -0.00000770
     atom    4 type  1   force =    -0.00000000    0.00046849   -0.00004711
     atom    5 type  1   force =     0.00006537    0.00003774    0.00000000
     atom    6 type  1   force =    -0.00000000    0.00046849    0.00004711
     atom    7 type  1   force =    -0.00000000    0.00033664    0.00001112
     atom    8 type  1   force =    -0.00000000    0.00008543   -0.00000000
     atom    9 type  1   force =    -0.00000000    0.00033664   -0.00001112
     atom   10 type  1   force =     0.00000000    0.00000000   -0.00004771
     atom   11 type  1   force =    -0.00006537    0.00003774   -0.00000000
     atom   12 type  1   force =    -0.00000000   -0.00000000    0.00004771
     atom   13 type  1   force =    -0.00029154   -0.00016832    0.00001112
     atom   14 type  1   force =    -0.00007399   -0.00004272    0.00000000
     atom   15 type  1   force =    -0.00029154   -0.00016832   -0.00001112
     atom   16 type  1   force =     0.00040572   -0.00023424   -0.00004711
     atom   17 type  1   force =     0.00000000   -0.00000000    0.00000000
     atom   18 type  1   force =     0.00040572   -0.00023424    0.00004711
     atom   19 type  1   force =     0.00029154   -0.00016832    0.00001112
     atom   20 type  1   force =     0.00007399   -0.00004272    0.00000000
     atom   21 type  1   force =     0.00029154   -0.00016832   -0.00001112
     atom   22 type  1   force =    -0.00040572   -0.00023424   -0.00004711
     atom   23 type  1   force =     0.00000000   -0.00007549    0.00000000
     atom   24 type  1   force =    -0.00040572   -0.00023424    0.00004711
     The non-local contrib.  to forces
     atom    1 type  1   force =    -0.00000000    0.00000000    0.00190240
     atom    2 type  1   force =     0.00000000   -0.00000000    0.00000000
     atom    3 type  1   force =    -0.00000000   -0.00000000   -0.00190240
     atom    4 type  1   force =    -0.00000000    0.00050185    0.00134553
     atom    5 type  1   force =     0.00008010    0.00004624    0.00000000
     atom    6 type  1   force =    -0.00000000    0.00050185   -0.00134553
     atom    7 type  1   force =     0.00000000    0.00033650    0.00191158
     atom    8 type  1   force =    -0.00000000    0.00010411    0.00000000
     atom    9 type  1   force =    -0.00000000    0.00033650   -0.00191158
     atom   10 type  1   force =     0.00000000    0.00000000    0.00134479
     atom   11 type  1   force =    -0.00008010    0.00004624   -0.00000000
     atom   12 type  1   force =     0.00000000   -0.00000000   -0.00134479
     atom   13 type  1   force =    -0.00029142   -0.00016825    0.00191158
     atom   14 type  1   force =    -0.00009016   -0.00005205   -0.00000000
     atom   15 type  1   force =    -0.00029142   -0.00016825   -0.00191158
     atom   16 type  1   force =     0.00043461   -0.00025092    0.00134553
     atom   17 type  1   force =    -0.00000000    0.00000000   -0.00000000
     atom   18 type  1   force =     0.00043461   -0.00025092   -0.00134553
     atom   19 type  1   force =     0.00029142   -0.00016825    0.00191158
     atom   20 type  1   force =     0.00009016   -0.00005205    0.00000000
     atom   21 type  1   force =     0.00029142   -0.00016825   -0.00191158
     atom   22 type  1   force =    -0.00043461   -0.00025092    0.00134553
     atom   23 type  1   force =    -0.00000000   -0.00009249   -0.00000000
     atom   24 type  1   force =    -0.00043461   -0.00025092   -0.00134553
     The ionic contribution  to forces
     atom    1 type  1   force =    -0.00001753   -0.00001014   -1.00685566
     atom    2 type  1   force =    -0.00000003   -0.00002025   -0.00004405
     atom    3 type  1   force =    -0.00001753   -0.00001014    1.00689970
     atom    4 type  1   force =     0.00001755    0.00122548   -1.01668209
     atom    5 type  1   force =     0.00054586    0.00033545   -0.00004371
     atom    6 type  1   force =     0.00001755    0.00122548    1.01672580
     atom    7 type  1   force =    -0.00001754    0.00029504   -1.00691860
     atom    8 type  1   force =    -0.00000003    0.00055997   -0.00004404
     atom    9 type  1   force =    -0.00001754    0.00029504    1.00696264
     atom   10 type  1   force =     0.00001756    0.00001012   -1.01668081
     atom   11 type  1   force =    -0.00054592    0.00033545   -0.00004371
     atom   12 type  1   force =     0.00001756    0.00001012    1.01672452
     atom   13 type  1   force =    -0.00028181   -0.00016272   -1.00691860
     atom   14 type  1   force =    -0.00050252   -0.00031036   -0.00004404
     atom   15 type  1   force =    -0.00028181   -0.00016272    1.00696264
     atom   16 type  1   force =     0.00107008   -0.00059757   -1.01668209
     atom   17 type  1   force =    -0.00000003    0.00002028   -0.00004371
     atom   18 type  1   force =     0.00107008   -0.00059757    1.01672580
     atom   19 type  1   force =     0.00024676   -0.00016273   -1.00691860
     atom   20 type  1   force =     0.00050246   -0.00031036   -0.00004404
     atom   21 type  1   force =     0.00024676   -0.00016273    1.00696264
     atom   22 type  1   force =    -0.00103495   -0.00059755   -1.01668209
     atom   23 type  1   force =    -0.00000003   -0.00061006   -0.00004371
     atom   24 type  1   force =    -0.00103495   -0.00059755    1.01672580
     The local contribution  to forces
     atom    1 type  1   force =     0.00000000   -0.00000000    1.00521572
     atom    2 type  1   force =    -0.00000000    0.00000000   -0.00000000
     atom    3 type  1   force =     0.00000000   -0.00000000   -1.00498639
     atom    4 type  1   force =     0.00001308   -0.00123071    1.01544288
     atom    5 type  1   force =    -0.00055746   -0.00030670   -0.00000000
     atom    6 type  1   force =     0.00001308   -0.00123071   -1.01521391
     atom    7 type  1   force =     0.00000000   -0.00029966    1.00527290
     atom    8 type  1   force =     0.00000000   -0.00059427   -0.00000000
     atom    9 type  1   force =     0.00000000   -0.00029966   -1.00504362
     atom   10 type  1   force =     0.00001307    0.00000754    1.01544195
     atom   11 type  1   force =     0.00055746   -0.00030670   -0.00000000
     atom   12 type  1   force =     0.00001307    0.00000754   -1.01521301
     atom   13 type  1   force =     0.00025952    0.00014983    1.00527290
     atom   14 type  1   force =     0.00051465    0.00029714   -0.00000000
     atom   15 type  1   force =     0.00025952    0.00014983   -1.00504362
     atom   16 type  1   force =    -0.00105929    0.00062668    1.01544288
     atom   17 type  1   force =     0.00000000    0.00001515   -0.00000000
     atom   18 type  1   force =    -0.00105929    0.00062668   -1.01521391
     atom   19 type  1   force =    -0.00025952    0.00014983    1.00527290
     atom   20 type  1   force =    -0.00051465    0.00029714   -0.00000000
     atom   21 type  1   force =    -0.00025952    0.00014983   -1.00504362
     atom   22 type  1   force =     0.00108542    0.00062667    1.01544288
     atom   23 type  1   force =     0.00000000    0.00065885   -0.00000000
     atom   24 type  1   force =     0.00108542    0.00062667   -1.01521391
     The core correction contribution to forces
     atom    1 type  1   force =     0.00000000    0.00000000   -0.00008573
     atom    2 type  1   force =    -0.00000000    0.00000000   -0.00000000
     atom    3 type  1   force =     0.00000000    0.00000000    0.00008730
     atom    4 type  1   force =    -0.00000038   -0.00001142    0.00001413
     atom    5 type  1   force =    -0.00000317   -0.00000226   -0.00000000
     atom    6 type  1   force =    -0.00000038   -0.00001142   -0.00001263
     atom    7 type  1   force =     0.00000000   -0.00000497   -0.00008579
     atom    8 type  1   force =    -0.00000000   -0.00000388   -0.00000000
     atom    9 type  1   force =     0.00000000   -0.00000497    0.00008736
     atom   10 type  1   force =    -0.00000038   -0.00000022    0.00001411
     atom   11 type  1   force =     0.00000317   -0.00000226   -0.00000000
     atom   12 type  1   force =    -0.00000038   -0.00000022   -0.00001260
     atom   13 type  1   force =     0.00000430    0.00000248   -0.00008579
     atom   14 type  1   force =     0.00000336    0.00000194   -0.00000000
     atom   15 type  1   force =     0.00000430    0.00000248    0.00008736
     atom   16 type  1   force =    -0.00001008    0.00000539    0.00001413
     atom   17 type  1   force =    -0.00000000   -0.00000043   -0.00000000
     atom   18 type  1   force =    -0.00001008    0.00000539   -0.00001263
     atom   19 type  1   force =    -0.00000430    0.00000248   -0.00008579
     atom   20 type  1   force =    -0.00000336    0.00000194   -0.00000000
     atom   21 type  1   force =    -0.00000430    0.00000248    0.00008736
     atom   22 type  1   force =     0.00000933    0.00000539    0.00001413
     atom   23 type  1   force =    -0.00000000    0.00000323   -0.00000000
     atom   24 type  1   force =     0.00000933    0.00000539   -0.00001263
     The Hubbard contrib.    to forces
     atom    1 type  1   force =     0.00000000    0.00000000    0.00000000
     atom    2 type  1   force =     0.00000000    0.00000000    0.00000000
     atom    3 type  1   force =     0.00000000    0.00000000    0.00000000
     atom    4 type  1   force =     0.00000000    0.00000000    0.00000000
     atom    5 type  1   force =     0.00000000    0.00000000    0.00000000
     atom    6 type  1   force =     0.00000000    0.00000000    0.00000000
     atom    7 type  1   force =     0.00000000    0.00000000    0.00000000
     atom    8 type  1   force =     0.00000000    0.00000000    0.00000000
     atom    9 type  1   force =     0.00000000    0.00000000    0.00000000
     atom   10 type  1   force =     0.00000000    0.00000000    0.00000000
     atom   11 type  1   force =     0.00000000    0.00000000    0.00000000
     atom   12 type  1   force =     0.00000000    0.00000000    0.00000000
     atom   13 type  1   force =     0.00000000    0.00000000    0.00000000
     atom   14 type  1   force =     0.00000000    0.00000000    0.00000000
     atom   15 type  1   force =     0.00000000    0.00000000    0.00000000
     atom   16 type  1   force =     0.00000000    0.00000000    0.00000000
     atom   17 type  1   force =     0.00000000    0.00000000    0.00000000
     atom   18 type  1   force =     0.00000000    0.00000000    0.00000000
     atom   19 type  1   force =     0.00000000    0.00000000    0.00000000
     atom   20 type  1   force =     0.00000000    0.00000000    0.00000000
     atom   21 type  1   force =     0.00000000    0.00000000    0.00000000
     atom   22 type  1   force =     0.00000000    0.00000000    0.00000000
     atom   23 type  1   force =     0.00000000    0.00000000    0.00000000
     atom   24 type  1   force =     0.00000000    0.00000000    0.00000000
     The SCF correction term to forces
     atom    1 type  1   force =     0.00000000    0.00000000   -0.00003667
     atom    2 type  1   force =     0.00000000    0.00000000    0.00001116
     atom    3 type  1   force =     0.00000000    0.00000000    0.00002647
     atom    4 type  1   force =    -0.00000000    0.00000075   -0.00003558
     atom    5 type  1   force =     0.00000002    0.00000001    0.00001116
     atom    6 type  1   force =    -0.00000000    0.00000075    0.00002536
     atom    7 type  1   force =     0.00000000   -0.00000040   -0.00003664
     atom    8 type  1   force =     0.00000000   -0.00000075    0.00001116
     atom    9 type  1   force =     0.00000000   -0.00000040    0.00002643
     atom   10 type  1   force =    -0.00000000   -0.00000000   -0.00003577
     atom   11 type  1   force =    -0.00000002    0.00000001    0.00001116
     atom   12 type  1   force =    -0.00000000   -0.00000000    0.00002555
     atom   13 type  1   force =     0.00000035    0.00000020   -0.00003664
     atom   14 type  1   force =     0.00000065    0.00000038    0.00001116
     atom   15 type  1   force =     0.00000035    0.00000020    0.00002643
     atom   16 type  1   force =     0.00000065   -0.00000038   -0.00003558
     atom   17 type  1   force =     0.00000000   -0.00000000    0.00001116
     atom   18 type  1   force =     0.00000065   -0.00000038    0.00002536
     atom   19 type  1   force =    -0.00000035    0.00000020   -0.00003664
     atom   20 type  1   force =    -0.00000065    0.00000038    0.00001116
     atom   21 type  1   force =    -0.00000035    0.00000020    0.00002643
     atom   22 type  1   force =    -0.00000065   -0.00000038   -0.00003558
     atom   23 type  1   force =     0.00000000   -0.00000002    0.00001116
     atom   24 type  1   force =    -0.00000065   -0.00000038    0.00002536

     Total force =     0.001433     Total SCF correction =     0.000130

     Computing stress (Cartesian axis) and pressure

          total   stress  (Ry/bohr**3)                   (kbar)     P=       61.59
   0.00046222  -0.00000000  -0.00000000           67.99       -0.00       -0.00
  -0.00000000   0.00046222  -0.00000000           -0.00       67.99       -0.00
  -0.00000000  -0.00000000   0.00033162           -0.00       -0.00       48.78

     Writing all to output data dir ../../results/server/graphene/graphene.save/

     General routines

     Parallel routines

   This run was terminated on:  14:33:53   3Sep2024

   JOB DONE.